img 0 , gnumloc 1 , npeaks 2, pixdev 3, intensity 4, dxymicrons 5:7, matstarlab 7:16, strain6_crystal 16:22, euler 22:25, rgb_x_sample, rgb_y_sample, rgb_z_sample, rgb_x_lab, rgb_y_lab, rgb_z_lab, strain6_crystal,  strain6_sample, stress6_crystal, stress6_sample, res_shear_stress_12, max_rss, von_mises
img gnumloc npeaks pixdev intensity dxymicrons_0 dxymicrons_1 matstarlab_0 matstarlab_1 matstarlab_2 matstarlab_3 matstarlab_4 matstarlab_5 matstarlab_6 matstarlab_7 matstarlab_8 strain6_crystal_0 strain6_crystal_1 strain6_crystal_2 strain6_crystal_3 strain6_crystal_4 strain6_crystal_5 euler3_0 euler3_1 euler3_2 rgb_x_sample_0 rgb_x_sample_1 rgb_x_sample_2 rgb_y_sample_0 rgb_y_sample_1 rgb_y_sample_2 rgb_z_sample_0 rgb_z_sample_1 rgb_z_sample_2 rgb_x_lab_0 rgb_x_lab_1 rgb_x_lab_2 rgb_y_lab_0 rgb_y_lab_1 rgb_y_lab_2 rgb_z_lab_0 rgb_z_lab_1 rgb_z_lab_2 strain6_crystal_0 strain6_crystal_1 strain6_crystal_2 strain6_crystal_3 strain6_crystal_4 strain6_crystal_5 strain6_sample_0 strain6_sample_1 strain6_sample_2 strain6_sample_3 strain6_sample_4 strain6_sample_5 stress6_crystal_0 stress6_crystal_1 stress6_crystal_2 stress6_crystal_3 stress6_crystal_4 stress6_crystal_5 stress6_sample_0 stress6_sample_1 stress6_sample_2 stress6_sample_3 stress6_sample_4 stress6_sample_5 res_shear_stress_0 res_shear_stress_1 res_shear_stress_2 res_shear_stress_3 res_shear_stress_4 res_shear_stress_5 res_shear_stress_6 res_shear_stress_7 res_shear_stress_8 res_shear_stress_9 res_shear_stress_10 res_shear_stress_11 max_rss von_mises 
0.000000 0.000000 119.000000 0.480000 37490.716000 0.000000 0.000000 0.194982 -0.833071 0.517662 0.689417 -0.257349 -0.674609 0.697995 0.488037 0.525233 -0.356576 1.336688 -0.980112 -0.643838 -0.709361 0.204679 0.000000 0.000000 0.000000 0.007158 1.000000 0.479072 0.146614 0.871263 1.000000 1.000000 0.645784 0.262035 0.007158 1.000000 0.479072 0.768323 0.723759 1.000000 0.170583 0.012760 1.000000 -0.356172 1.336662 -0.980489 -0.643725 -0.709456 0.204378 -0.611641 0.973946 -0.362305 -0.014158 -0.686844 -1.094530 -0.362227 1.359385 -0.997158 -1.023651 -1.128177 0.325003 -1.055899 1.545344 -0.489446 -0.216136 -0.834491 -1.139573 -0.745518 0.175635 -1.581325 -0.660173 -0.809795 0.026013 -0.544431 0.291376 1.555312 1.289949 0.634160 0.368797 1.581325 3.426222
1.000000 0.000000 100.000000 4.030000 9871.178000 1.000000 0.000000 -0.192746 0.835091 -0.515240 -0.697230 -0.485908 -0.534724 -0.688366 0.258551 0.677211 1.233639 -2.803970 1.570330 3.889406 0.150530 -2.043830 0.000000 0.000000 0.000000 0.002570 1.000000 0.460078 0.144806 0.829833 1.000000 1.000000 0.639348 0.269053 0.002570 1.000000 0.460078 0.800198 0.729974 1.000000 0.169244 0.016277 1.000000 1.233367 -2.803012 1.569644 3.888704 0.150554 -2.043185 2.659748 -3.183833 0.524085 -2.756481 -2.336517 -1.854687 1.254335 -2.850663 1.596328 6.183817 0.239412 -3.249073 4.564127 -4.687093 0.122965 -4.272173 -3.516278 -1.718737 -0.750935 -0.946414 4.298130 4.102652 3.990580 -1.058486 1.337722 -3.711343 -3.239645 -0.586787 -3.044166 -0.391309 4.298130 12.842586
2.000000 0.000000 111.000000 1.060000 19433.017000 2.000000 0.000000 -0.195123 0.833432 -0.517028 -0.697381 -0.488368 -0.525544 -0.689974 0.256684 0.675450 -0.129660 -0.649965 0.779626 -0.420206 0.334997 -0.387251 0.000000 0.000000 0.000000 0.007348 1.000000 0.481878 0.148904 0.865933 1.000000 1.000000 0.645766 0.263733 0.007348 1.000000 0.481878 0.772261 0.729449 1.000000 0.169579 0.014232 1.000000 -0.129669 -0.649545 0.779215 -0.420451 0.334987 -0.387137 -0.367721 0.646303 -0.278582 -0.108213 -0.241553 -0.759273 -0.131874 -0.660588 0.792461 -0.668602 0.532696 -0.615626 -0.614357 1.045501 -0.431144 -0.269242 -0.238748 -0.832455 0.706274 0.271330 0.160363 -0.274581 0.355731 0.901642 -0.146925 0.398985 -1.062005 -0.559349 -0.627061 -0.124404 1.062005 2.225310
3.000000 0.000000 107.000000 1.860000 11837.499000 3.000000 0.000000 -0.193199 0.834238 -0.516451 -0.697541 -0.487417 -0.529649 -0.689833 0.257072 0.676276 0.660142 -1.665092 1.004949 1.149963 0.763244 -0.834589 0.000000 0.000000 0.000000 0.004751 1.000000 0.473800 0.146894 0.849245 1.000000 1.000000 0.638608 0.267799 0.004751 1.000000 0.473800 0.783876 0.724959 1.000000 0.168276 0.016256 1.000000 0.659825 -1.665123 1.005297 1.149806 0.763178 -0.834446 0.778701 -0.744279 -0.034422 -1.323197 -0.561205 -1.436506 0.671042 -1.693430 1.022387 1.828422 1.213606 -1.326936 1.414140 -0.967657 -0.446483 -2.061736 -0.759236 -1.537342 0.714294 -0.276611 2.207195 1.216289 1.431605 -0.061295 0.348167 -1.144734 -2.145900 -1.062461 -1.154994 -0.071556 2.207195 5.125924
4.000000 0.000000 109.000000 1.380000 12912.749000 4.000000 0.000000 -0.193417 0.833968 -0.516805 -0.697079 -0.487294 -0.528546 -0.690424 0.256861 0.675362 0.252029 -1.114470 0.862441 0.423266 0.638602 -0.794666 0.000000 0.000000 0.000000 0.004746 1.000000 0.474251 0.148918 0.854184 1.000000 1.000000 0.638349 0.267699 0.004746 1.000000 0.474251 0.779261 0.725971 1.000000 0.167420 0.016819 1.000000 0.252117 -1.114445 0.862328 0.423257 0.638541 -0.794557 0.244011 0.020936 -0.264947 -0.893613 -0.474927 -1.074055 0.256403 -1.133391 0.876987 0.673064 1.015408 -1.263504 0.456804 0.145961 -0.602765 -1.447996 -0.620266 -1.167112 0.707142 -0.121935 1.256697 0.427620 1.043953 0.494399 0.012306 -0.537248 -1.751096 -0.719449 -0.922018 0.109629 1.751096 3.524297
5.000000 0.000000 110.000000 1.000000 11575.209000 5.000000 0.000000 -0.193545 0.833735 -0.517133 -0.696683 -0.486916 -0.528274 -0.691049 0.256657 0.674425 -0.032732 -0.798291 0.831023 -0.095516 0.518391 -1.032944 0.000000 0.000000 0.000000 0.003931 1.000000 0.472801 0.150830 0.855876 1.000000 1.000000 0.637711 0.267786 0.003931 1.000000 0.472801 0.776477 0.727358 1.000000 0.166510 0.017724 1.000000 -0.032571 -0.798127 0.830698 -0.095341 0.518304 -1.032780 -0.221235 0.663438 -0.442204 -0.733094 -0.630809 -0.854844 -0.033125 -0.811695 0.844820 -0.151611 0.824206 -1.642327 -0.357269 1.099402 -0.742133 -1.246951 -0.854647 -0.926024 0.716226 0.043264 0.592436 -0.080526 0.967001 1.090791 -0.373953 -0.250163 -1.683227 -0.342273 -1.010266 0.330689 1.683227 3.501302
6.000000 0.000000 103.000000 1.140000 8702.500000 6.000000 0.000000 -0.193443 0.833757 -0.517135 -0.696584 -0.487296 -0.528585 -0.691103 0.256805 0.674437 0.088210 -0.956605 0.868395 0.113191 0.486964 -0.904521 0.000000 0.000000 0.000000 0.003410 1.000000 0.472711 0.151025 0.856197 1.000000 1.000000 0.637116 0.267807 0.003410 1.000000 0.472711 0.777143 0.727576 1.000000 0.166279 0.017222 1.000000 0.088403 -0.956661 0.868258 0.113078 0.487044 -0.904327 -0.048779 0.353342 -0.304563 -0.737725 -0.598439 -0.945456 0.089906 -0.972925 0.883018 0.179817 0.774497 -1.438060 -0.051887 0.637199 -0.585312 -1.233292 -0.804698 -1.011528 0.676676 0.044302 0.823496 0.191122 0.984282 0.837463 -0.189889 -0.336709 -1.660958 -0.486787 -1.028584 0.145587 1.660958 3.271417
7.000000 0.000000 94.000000 1.090000 6516.142000 7.000000 0.000000 -0.193483 0.833450 -0.517615 -0.696801 -0.487142 -0.529175 -0.691120 0.256751 0.674469 0.225533 -1.208860 0.983327 0.206673 0.703713 -1.355786 0.000000 0.000000 0.000000 0.002602 1.000000 0.471538 0.150684 0.854046 1.000000 1.000000 0.636900 0.266386 0.002602 1.000000 0.471538 0.776679 0.726895 1.000000 0.166477 0.017039 1.000000 0.225404 -1.208749 0.983346 0.206629 0.703602 -1.355608 -0.083959 0.483743 -0.399783 -1.187083 -0.811129 -1.160738 0.229236 -1.229298 1.000062 0.328582 1.118867 -2.155688 -0.072224 0.884010 -0.811786 -1.930294 -1.131489 -1.248839 0.918077 0.004525 1.186363 0.272811 1.328888 1.060602 -0.431224 -0.699510 -2.246964 -0.486852 -1.333413 0.426699 2.246964 4.676134
8.000000 0.000000 93.000000 0.710000 6845.992000 8.000000 0.000000 -0.193561 0.833247 -0.517913 -0.696245 -0.487677 -0.528058 -0.691542 0.257353 0.673228 -0.145003 -0.861602 1.006605 -0.237425 0.190936 -0.948202 0.000000 0.000000 0.000000 0.002368 1.000000 0.471185 0.152481 0.863886 1.000000 1.000000 0.636209 0.266140 0.002368 1.000000 0.471185 0.771870 0.727079 1.000000 0.165601 0.015782 1.000000 -0.145134 -0.861579 1.006713 -0.237422 0.190567 -0.948026 -0.371144 0.651033 -0.279889 -0.413602 -0.803164 -0.862415 -0.147601 -0.876226 1.023827 -0.377548 0.303039 -1.507550 -0.624876 1.064559 -0.439683 -0.777047 -1.090852 -0.879587 0.575309 0.327878 0.267042 0.019611 0.939555 1.247822 -0.291355 0.016912 -1.514863 -0.283954 -1.267433 -0.036523 1.514863 3.205919
9.000000 0.000000 86.000000 1.050000 6202.682000 9.000000 0.000000 -0.193202 0.833233 -0.518069 -0.695908 -0.488390 -0.526913 -0.690527 0.258084 0.671769 -0.810624 -1.035280 1.845904 -0.268169 -0.217141 -0.242610 0.000000 0.000000 0.000000 0.001958 1.000000 0.470575 0.151031 0.876371 1.000000 1.000000 0.636210 0.266272 0.001958 1.000000 0.470575 0.767210 0.722050 1.000000 0.166111 0.013678 1.000000 -0.810271 -1.035420 1.845691 -0.268259 -0.217325 -0.242497 -0.027172 0.396647 -0.369475 0.603928 -0.895627 -1.196426 -0.824046 -1.053022 1.877068 -0.426586 -0.345590 -0.385618 -0.246139 0.554296 -0.308157 0.632667 -1.047625 -1.173275 0.126545 0.408719 -0.221760 0.060413 1.086000 1.434306 0.771144 1.119450 -1.212545 -0.897689 -1.494719 -1.179863 1.494719 3.052419
10.000000 0.000000 76.000000 1.730000 8123.650000 10.000000 0.000000 0.370752 0.053640 -0.927181 -0.376177 0.917778 -0.099729 0.848009 0.384552 0.362073 -1.359755 1.768822 -0.409067 1.094243 0.337398 -1.120279 0.000000 0.000000 0.000000 0.731515 0.011713 1.000000 0.097501 0.041050 1.000000 0.082192 1.000000 0.054060 0.731515 0.011713 1.000000 1.000000 0.883659 0.167241 1.000000 0.662131 0.298949 -1.359302 1.768701 -0.409399 1.094135 0.337606 -1.120278 -0.404910 1.538390 -1.133481 -1.711764 -0.066925 -0.543725 -1.382410 1.798769 -0.416359 1.739894 0.536860 -1.781466 -0.509840 2.334560 -1.824720 -1.961265 -0.570361 -0.676268 -1.789848 -2.228192 -0.369230 -0.807575 1.831978 0.411360 0.377417 -1.043201 -0.042130 1.412431 0.396214 1.850775 2.228192 5.239007
11.000000 0.000000 85.000000 1.990000 9079.476000 11.000000 0.000000 -0.374548 0.921660 -0.101272 -0.847936 -0.385553 -0.364966 -0.373872 -0.053158 0.923921 -0.487340 -0.914908 1.402249 -0.158504 1.272933 0.398527 0.000000 0.000000 0.000000 0.723627 0.000437 1.000000 0.092603 0.043029 1.000000 0.083310 1.000000 0.062597 0.723627 0.000437 1.000000 1.000000 0.878909 0.164250 1.000000 0.668587 0.305650 -0.485522 -0.912414 1.397937 -0.158029 1.268610 0.396868 -0.017632 0.698569 -0.680937 1.101664 -0.246066 -1.246144 -0.493776 -0.927925 1.421701 -0.251298 2.017344 0.631100 0.274523 1.126280 -1.400802 1.311258 -0.084065 -1.647616 1.103410 -0.543744 0.898226 -0.748928 0.421753 0.626937 0.937044 1.142228 -1.525163 -2.040454 0.121991 -0.393300 2.040454 4.275802
12.000000 0.000000 89.000000 2.080000 8561.229000 12.000000 0.000000 -0.374573 0.921615 -0.101596 -0.846568 -0.384465 -0.366248 -0.373560 -0.052494 0.921855 -1.553564 -0.866668 2.420231 0.607808 1.067147 0.010479 0.000000 0.000000 0.000000 0.722621 0.006453 1.000000 0.091948 0.042325 1.000000 0.084134 1.000000 0.062762 0.722621 0.006453 1.000000 1.000000 0.879491 0.166008 1.000000 0.668288 0.306609 -1.549148 -0.863671 2.412820 0.605938 1.063669 0.010224 0.191833 0.255780 -0.447613 1.510743 -1.482975 -1.161701 -1.575484 -0.878354 2.453837 0.963563 1.691446 0.016258 0.591313 0.486147 -1.077460 1.460094 -1.736366 -1.551418 0.012555 -1.368505 0.799301 -0.581759 2.031699 1.244953 2.044974 1.258228 -2.044254 -2.057529 -0.663194 -0.676469 2.057529 5.028080
13.000000 0.000000 93.000000 3.180000 11158.639000 13.000000 0.000000 -0.374000 0.921655 -0.103327 -0.843471 -0.382228 -0.367006 -0.372339 -0.050771 0.916752 -4.416644 -0.497497 4.914140 1.533865 1.155181 -0.551726 0.000000 0.000000 0.000000 0.722679 0.019261 1.000000 0.087852 0.044004 1.000000 0.085623 1.000000 0.062931 0.722679 0.019261 1.000000 1.000000 0.886230 0.164195 1.000000 0.665477 0.308731 -4.402653 -0.495792 4.898444 1.529020 1.151384 -0.549542 0.669305 -0.144000 -0.525304 3.209367 -3.773207 -0.931715 -4.477498 -0.504220 4.981718 2.431448 1.830930 -0.873882 1.224968 0.022518 -1.247485 2.867266 -4.577339 -1.373282 -1.867244 -3.362192 0.118025 -1.376923 5.211104 3.225835 4.497582 2.512313 -3.343860 -2.630338 -1.848912 -1.135390 5.211104 9.887535
14.000000 0.000000 82.000000 5.060000 11352.339000 14.000000 0.000000 -0.372987 0.921789 -0.105767 -0.839248 -0.378353 -0.369890 -0.369834 -0.048094 0.911447 -7.823789 0.170601 7.653188 4.460598 1.428283 -1.714833 0.000000 0.000000 0.000000 0.722961 0.041292 1.000000 0.084739 0.045817 1.000000 0.086549 1.000000 0.061229 0.722961 0.041292 1.000000 1.000000 0.892586 0.163045 1.000000 0.659636 0.310230 -7.799106 0.170340 7.628767 4.446347 1.423458 -1.709201 2.279669 -1.229924 -1.049745 4.267880 -7.826822 -0.929757 -7.931691 0.173235 7.758456 7.070581 2.263583 -2.717972 3.553900 -1.502239 -2.051661 3.054819 -10.119248 -1.671158 -5.271271 -7.119479 0.501834 -1.346374 10.401636 4.628530 8.182421 2.409316 -5.130364 -2.911149 -3.282157 -1.062942 10.401636 19.292899
15.000000 0.000000 113.000000 0.850000 22470.867000 15.000000 0.000000 -0.599581 0.591092 -0.539549 -0.144005 -0.742157 -0.653525 -0.787085 -0.315591 0.529128 -0.383501 0.304831 0.078670 -0.883765 0.057077 -0.134565 0.000000 0.000000 0.000000 0.290896 1.000000 0.382314 1.000000 0.009685 0.196369 0.223279 1.000000 0.051306 0.290896 1.000000 0.382314 0.278158 0.718484 1.000000 0.126086 0.013232 1.000000 -0.383201 0.304458 0.078743 -0.883356 0.056583 -0.134462 -0.250876 0.495988 -0.245112 0.472488 -0.161882 -0.700362 -0.389716 0.309634 0.080082 -1.404713 0.089978 -0.213822 -0.351508 0.619909 -0.268400 0.725874 -0.131942 -1.148858 0.324697 0.251230 -0.822247 -0.895714 -0.294385 0.852558 -0.468970 0.677973 -0.030312 0.144273 0.043155 0.217740 0.895714 2.542116
16.000000 0.000000 111.000000 0.660000 23321.901000 16.000000 0.000000 -0.599557 0.590961 -0.539719 -0.787072 -0.315299 0.529112 0.144161 0.742736 0.653036 -0.376111 0.199300 0.176810 1.062259 -0.019888 0.003155 0.000000 0.000000 0.000000 0.291121 1.000000 0.382445 1.000000 0.007918 0.197412 0.223267 1.000000 0.050664 0.291121 1.000000 0.382445 0.279297 0.719712 1.000000 0.125193 0.013277 1.000000 -0.376020 0.199123 0.176898 1.061693 -0.019683 0.003304 -0.242678 0.378489 -0.135811 0.704534 -0.196181 -0.767207 -0.382413 0.202508 0.179905 1.688304 -0.031299 0.005255 -0.381267 0.503889 -0.122622 1.092984 -0.155119 -1.239095 -0.940818 -0.915262 0.437677 0.463232 0.916667 -0.461827 0.920958 -0.457537 0.024151 0.019860 -0.001405 -0.005696 0.940818 2.980529
17.000000 0.000000 115.000000 0.720000 22980.508000 17.000000 0.000000 -0.599276 0.591327 -0.539630 -0.787125 -0.314950 0.529055 0.144186 0.742527 0.653287 -0.404666 0.268835 0.135830 0.865260 -0.068057 0.013555 0.000000 0.000000 0.000000 0.292346 1.000000 0.384026 1.000000 0.008531 0.197214 0.223796 1.000000 0.051035 0.292346 1.000000 0.384026 0.278477 0.720494 1.000000 0.125370 0.013567 1.000000 -0.404438 0.268433 0.136005 0.864780 -0.067945 0.013534 -0.147950 0.289409 -0.141458 0.628816 -0.248079 -0.599937 -0.411314 0.272997 0.138317 1.375173 -0.108046 0.021522 -0.249025 0.384971 -0.135947 0.969249 -0.210832 -0.967685 -0.884890 -0.796671 0.237934 0.326153 0.777011 -0.345813 0.794584 -0.328240 0.107879 0.090306 0.019659 0.002087 0.884890 2.470622
18.000000 0.000000 115.000000 0.570000 36594.068000 18.000000 0.000000 -0.599022 0.591529 -0.539691 -0.787570 -0.315044 0.529238 0.143793 0.741320 0.654195 -0.364474 -0.171081 0.535555 0.285762 0.343875 0.105563 0.000000 0.000000 0.000000 0.292879 1.000000 0.384670 1.000000 0.011935 0.195046 0.224785 1.000000 0.051375 0.292879 1.000000 0.384670 0.276932 0.719793 1.000000 0.126625 0.014529 1.000000 -0.364576 -0.170514 0.535090 0.285878 0.343701 0.105683 -0.249895 0.649033 -0.399138 -0.064024 -0.087058 -0.319377 -0.370774 -0.173412 0.544186 0.454603 0.546553 0.168057 -0.268099 0.735275 -0.467176 -0.121114 -0.086995 -0.572585 -0.043034 -0.489293 0.328148 -0.118111 0.490513 0.119331 0.627731 0.256549 -0.447479 -0.584697 -0.001220 -0.138438 0.627731 1.515391
19.000000 0.000000 116.000000 0.780000 41236.915000 19.000000 0.000000 -0.599034 0.591502 -0.539707 -0.787979 -0.315033 0.529578 0.144164 0.741456 0.654037 -0.181254 -0.486167 0.667421 0.409260 0.388249 0.067237 0.000000 0.000000 0.000000 0.292373 1.000000 0.385107 1.000000 0.011433 0.195784 0.225239 1.000000 0.051112 0.292373 1.000000 0.385107 0.277288 0.722219 1.000000 0.126468 0.014504 1.000000 -0.181275 -0.485890 0.667164 0.409423 0.388102 0.066972 -0.449527 0.810418 -0.360891 -0.055323 0.144250 -0.401681 -0.184356 -0.494150 0.678506 0.651064 0.617159 0.106499 -0.512740 0.918465 -0.405725 -0.089133 0.144055 -0.721900 0.112631 -0.391277 0.644223 0.140314 0.574580 0.042988 0.661536 0.129944 -0.687211 -0.774167 -0.183303 -0.270258 0.774167 1.885775
20.000000 0.000000 115.000000 0.560000 44617.785000 20.000000 0.000000 -0.598866 0.591590 -0.539798 -0.787914 -0.314599 0.529203 0.144333 0.741354 0.653687 -0.404257 -0.321814 0.726072 0.510166 0.359818 -0.039045 0.000000 0.000000 0.000000 0.293775 1.000000 0.385830 1.000000 0.010766 0.196386 0.225418 1.000000 0.051058 0.293775 1.000000 0.385830 0.277674 0.723562 1.000000 0.126308 0.014435 1.000000 -0.404125 -0.321717 0.725842 0.510241 0.359496 -0.038921 -0.544470 0.878751 -0.334281 0.059290 -0.057071 -0.436991 -0.410995 -0.327187 0.738182 0.811386 0.571670 -0.061893 -0.677014 0.994767 -0.317753 0.075871 -0.070410 -0.783755 -0.132078 -0.598845 0.530416 0.063649 0.825664 0.163170 0.775129 0.112635 -0.693586 -0.643050 -0.226819 -0.176284 0.825664 2.048968
21.000000 0.000000 117.000000 0.580000 41332.891000 21.000000 0.000000 -0.598525 0.591680 -0.540076 -0.787804 -0.314149 0.528791 0.144591 0.740893 0.653838 -0.621034 -0.093783 0.714818 0.460092 0.647843 -0.027825 0.000000 0.000000 0.000000 0.295667 1.000000 0.386362 1.000000 0.011395 0.196582 0.225809 1.000000 0.050854 0.295667 1.000000 0.386362 0.277229 0.725419 1.000000 0.126493 0.014294 1.000000 -0.620809 -0.093395 0.714204 0.459724 0.647686 -0.028126 -0.508901 0.918815 -0.409914 -0.164606 -0.307588 -0.571333 -0.631362 -0.094983 0.726345 0.731054 1.029951 -0.044727 -0.657210 1.065189 -0.407979 -0.298825 -0.347158 -0.994250 -0.096952 -0.937903 0.499951 -0.341000 0.870993 0.274090 0.834474 0.237571 -0.774041 -0.737522 0.066910 0.103429 0.937903 2.488884
22.000000 0.000000 110.000000 0.540000 26149.048000 22.000000 0.000000 -0.598137 0.591869 -0.540299 -0.788131 -0.313801 0.528777 0.144367 0.741678 0.653611 -0.440522 -0.052756 0.493278 0.453440 0.261051 0.008529 0.000000 0.000000 0.000000 0.296471 1.000000 0.387016 1.000000 0.009820 0.196951 0.226840 1.000000 0.050691 0.296471 1.000000 0.387016 0.277910 0.726677 1.000000 0.125417 0.015688 1.000000 -0.440140 -0.053073 0.493213 0.453492 0.260693 0.008471 -0.320506 0.622378 -0.301873 0.114843 -0.182212 -0.395720 -0.447623 -0.053975 0.501598 0.721143 0.414553 0.013470 -0.406425 0.716237 -0.309812 0.156407 -0.185438 -0.688181 -0.285871 -0.624352 0.302940 -0.035541 0.676424 0.087613 0.687422 0.098611 -0.390553 -0.401552 -0.052072 -0.063070 0.687422 1.660894
23.000000 0.000000 102.000000 0.840000 14030.097000 23.000000 0.000000 -0.598020 0.592156 -0.540114 -0.788339 -0.313755 0.529442 0.144445 0.741822 0.653620 -0.231872 -0.346363 0.578235 0.284794 0.067982 0.154258 0.000000 0.000000 0.000000 0.295891 1.000000 0.388786 1.000000 0.009707 0.197110 0.227283 1.000000 0.050743 0.295891 1.000000 0.388786 0.278027 0.727835 1.000000 0.125435 0.015937 1.000000 -0.231485 -0.346175 0.577659 0.284482 0.068180 0.154230 -0.216997 0.633389 -0.416392 0.127956 0.109011 -0.154400 -0.235420 -0.352060 0.587480 0.452383 0.108419 0.245257 -0.181236 0.686722 -0.505486 0.196529 0.140287 -0.317060 -0.092805 -0.181328 0.276564 0.188040 0.420506 0.051137 0.620757 0.251389 -0.327702 -0.527953 -0.239178 -0.439429 0.620757 1.271384
24.000000 0.000000 95.000000 1.320000 8843.935000 24.000000 0.000000 -0.597571 0.592024 -0.540756 -0.787955 -0.312270 0.528201 0.145573 0.739756 0.653395 -1.213022 0.096979 1.116043 0.294289 1.188593 -0.179585 0.000000 0.000000 0.000000 0.301198 1.000000 0.390691 1.000000 0.011398 0.198258 0.227427 1.000000 0.049543 0.301198 1.000000 0.390691 0.277796 0.733406 1.000000 0.126408 0.014216 1.000000 -1.212329 0.096863 1.115466 0.294092 1.187492 -0.179708 -0.791801 1.386855 -0.595055 -0.612771 -0.800539 -0.649663 -1.232938 0.098509 1.134429 0.467665 1.888350 -0.285771 -1.059665 1.587581 -0.527916 -1.053478 -0.919046 -1.165832 0.036431 -1.505400 0.418278 -1.123553 1.274063 0.892216 1.040732 0.658885 -1.310494 -1.077163 0.231338 0.464669 1.505400 3.977924
25.000000 0.000000 113.000000 0.630000 24281.510000 25.000000 0.000000 0.047893 -0.104644 0.993356 -0.983050 0.173250 0.063995 -0.179462 -0.979473 -0.093870 0.148055 -0.101837 -0.046218 -0.359424 -0.327713 0.820466 0.000000 0.000000 0.000000 1.000000 0.232850 0.100000 0.463533 1.000000 0.559135 0.386326 1.000000 0.151608 1.000000 0.232850 0.100000 1.000000 0.122870 0.223035 1.000000 0.045417 0.126505 0.148116 -0.102081 -0.046036 -0.359377 -0.327799 0.820312 -0.295813 0.571668 -0.275855 0.244622 -0.432568 -0.659240 0.150634 -0.103816 -0.046818 -0.571481 -0.521266 1.304460 -0.413232 0.901634 -0.488403 0.337137 -0.690163 -1.056716 0.124379 0.549991 -0.342233 0.083379 -0.846460 -0.379847 0.218627 0.685240 0.722080 -0.343006 0.296468 -0.768619 0.846460 2.636905
26.000000 0.000000 114.000000 0.450000 25235.646000 26.000000 0.000000 0.179552 0.979256 0.093903 -0.982796 0.173359 0.064003 0.047966 -0.104574 0.993154 -0.061912 -0.080105 0.142018 0.852431 0.266932 0.345381 0.000000 0.000000 0.000000 1.000000 0.233152 0.100013 0.463730 1.000000 0.559884 0.386303 1.000000 0.151626 1.000000 0.233152 0.100013 1.000000 0.122995 0.223205 1.000000 0.045163 0.126661 -0.061749 -0.080024 0.141773 0.852734 0.266791 0.345478 -0.276227 0.507312 -0.231085 0.234218 -0.471737 -0.679645 -0.062799 -0.081384 0.144183 1.356017 0.424251 0.549379 -0.394014 0.806068 -0.412054 0.318392 -0.754164 -1.085698 -0.372805 -0.719204 0.734379 0.387979 0.413809 -0.693375 0.862375 -0.244808 -0.041004 -0.489571 0.305395 -0.143171 0.862375 2.647414
27.000000 0.000000 114.000000 0.460000 23967.817000 27.000000 0.000000 0.179630 0.979236 0.093968 -0.982813 0.173375 0.064311 0.048204 -0.104717 0.993336 0.020206 -0.036739 0.016533 0.824330 0.271574 0.362718 0.000000 0.000000 0.000000 1.000000 0.232776 0.100621 0.464721 1.000000 0.561110 0.386166 1.000000 0.151191 1.000000 0.232776 0.100621 1.000000 0.122902 0.223436 1.000000 0.044907 0.127186 0.020109 -0.036999 0.016890 0.824146 0.271583 0.362646 -0.235976 0.527339 -0.291364 0.135346 -0.449204 -0.675338 0.020451 -0.037628 0.017177 1.310558 0.431872 0.576680 -0.355161 0.828627 -0.473466 0.215732 -0.712294 -1.079504 -0.335011 -0.687633 0.735054 0.382432 0.298267 -0.771798 0.769125 -0.300941 0.036744 -0.434114 0.389366 -0.081492 0.771798 2.590965
28.000000 0.000000 111.000000 0.480000 20558.292000 28.000000 0.000000 0.179533 0.979280 0.093695 -0.982901 0.173601 0.064197 0.048232 -0.104535 0.993304 0.043098 -0.132371 0.089273 0.893856 0.321342 0.222856 0.000000 0.000000 0.000000 1.000000 0.233332 0.100472 0.463509 1.000000 0.560279 0.385645 1.000000 0.151002 1.000000 0.233332 0.100472 1.000000 0.123222 0.222780 1.000000 0.044619 0.127112 0.042876 -0.132170 0.089294 0.893689 0.321518 0.222616 -0.283567 0.581287 -0.297720 0.205738 -0.580000 -0.577108 0.043605 -0.134417 0.090812 1.421145 0.511278 0.354004 -0.378684 0.894570 -0.515886 0.313789 -0.917372 -0.935710 -0.298774 -0.716231 0.861585 0.444128 0.454931 -0.705429 0.743974 -0.416386 -0.156156 -0.445200 0.261301 -0.027742 0.861585 2.694709
29.000000 0.000000 107.000000 0.810000 17134.975000 29.000000 0.000000 0.179141 0.979400 0.093189 -0.982703 0.174314 0.063518 0.048273 -0.103939 0.992727 -0.206626 -0.266769 0.473395 1.251630 0.318976 -0.299054 0.000000 0.000000 0.000000 1.000000 0.235638 0.099231 0.459598 1.000000 0.557573 0.384876 1.000000 0.150381 1.000000 0.235638 0.099231 1.000000 0.123606 0.221444 1.000000 0.043730 0.126827 -0.206772 -0.266543 0.473315 1.251632 0.319159 -0.299121 -0.270491 0.453570 -0.183078 0.613350 -1.119840 -0.374685 -0.210287 -0.271074 0.481361 1.990346 0.507527 -0.475662 -0.279449 0.719089 -0.439640 0.794623 -1.794295 -0.612264 -0.580542 -0.994936 1.044569 0.630175 1.289108 -0.336003 0.900731 -0.724379 -0.708566 -0.320190 -0.294172 0.094205 1.289108 3.722910
30.000000 0.000000 109.000000 1.730000 15976.437000 30.000000 0.000000 0.177710 0.979696 0.092819 -0.982018 0.174585 0.063283 0.047393 -0.103118 0.991756 -0.782991 -0.205492 0.988482 0.894796 0.272486 -1.200241 0.000000 0.000000 0.000000 1.000000 0.236217 0.098957 0.453950 1.000000 0.548834 0.384826 1.000000 0.150306 1.000000 0.236217 0.098957 1.000000 0.121997 0.220296 1.000000 0.044359 0.124607 -0.783170 -0.205879 0.989049 0.894853 0.272967 -1.200738 0.124200 -0.128899 0.004699 1.188882 -1.236606 0.418758 -0.796484 -0.209379 1.005863 1.422995 0.434073 -1.909413 0.324702 -0.084239 -0.240463 1.423884 -2.026614 0.695989 -0.643410 -0.997829 0.518460 0.164041 2.096255 0.934384 0.537226 -0.624645 -1.452845 0.106185 -1.098426 0.460603 2.096255 4.484702
31.000000 0.000000 107.000000 1.930000 15099.986000 31.000000 0.000000 0.178255 0.979736 0.091336 -0.980762 0.175882 0.062060 0.048914 -0.102174 0.988985 -2.077500 -0.408521 2.486021 2.308165 0.524538 -1.582762 0.000000 0.000000 0.000000 1.000000 0.240220 0.097105 0.445475 1.000000 0.551708 0.384665 1.000000 0.147777 1.000000 0.240220 0.097105 1.000000 0.125650 0.217577 1.000000 0.039993 0.127189 -2.077571 -0.408556 2.486127 2.308339 0.524756 -1.583114 -0.105792 -0.114207 0.219999 2.777450 -2.381963 -0.133313 -2.112890 -0.415502 2.528392 3.670720 0.834467 -2.517468 0.093433 0.158808 -0.252241 3.215686 -3.952196 -0.117199 -1.850851 -2.532191 1.146279 0.464939 4.421112 1.423982 2.365609 -0.631522 -2.570261 -0.514757 -1.888921 0.166582 4.421112 8.835669
32.000000 0.000000 110.000000 1.790000 15214.345000 32.000000 0.000000 0.176264 0.980142 0.090843 -0.980371 0.175640 0.063015 0.048444 -0.101348 0.987246 -2.811304 -0.787447 3.598752 1.564019 0.555316 -2.544265 0.000000 0.000000 0.000000 1.000000 0.237716 0.099543 0.438826 1.000000 0.541488 0.384847 1.000000 0.145745 1.000000 0.237716 0.099543 1.000000 0.122568 0.216515 1.000000 0.040031 0.125617 -2.811595 -0.788033 3.599628 1.564302 0.555277 -2.544850 -0.077727 -0.648873 0.726600 3.700593 -2.193923 0.994047 -2.859392 -0.801429 3.660821 2.487553 0.883002 -4.046821 0.360250 -0.611271 0.251020 4.194546 -3.707747 1.682129 -1.495215 -2.216183 0.535864 -0.185104 5.329513 3.298434 2.025298 -0.005781 -3.834298 -0.530082 -3.113330 0.190886 5.329513 10.166768
33.000000 0.000000 108.000000 0.520000 15562.068000 33.000000 0.000000 0.178608 0.979443 0.093753 -0.982568 0.173073 0.066382 0.049766 -0.104538 0.992819 -0.184179 -0.084181 0.268361 0.543166 0.210392 -0.121755 0.000000 0.000000 0.000000 1.000000 0.228787 0.105184 0.464031 1.000000 0.561197 0.384490 1.000000 0.146015 1.000000 0.228787 0.105184 1.000000 0.120491 0.223394 1.000000 0.041975 0.129857 -0.184049 -0.084400 0.268449 0.543483 0.210382 -0.121868 -0.093305 0.222553 -0.129248 0.362880 -0.459494 -0.175301 -0.187178 -0.085835 0.273013 0.864247 0.334549 -0.193795 -0.098669 0.376776 -0.278106 0.457723 -0.744720 -0.276103 -0.257622 -0.530780 0.448033 0.174875 0.619816 -0.085839 0.461583 -0.244072 -0.362194 -0.203961 -0.089036 0.069197 0.619816 1.692517
34.000000 0.000000 106.000000 0.560000 14483.018000 34.000000 0.000000 0.178661 0.979454 0.093543 -0.982434 0.173485 0.066062 0.049621 -0.104358 0.992441 -0.345166 -0.163978 0.509144 0.646380 0.256321 -0.288274 0.000000 0.000000 0.000000 1.000000 0.230066 0.104596 0.462376 1.000000 0.560456 0.384738 1.000000 0.146444 1.000000 0.230066 0.104596 1.000000 0.121066 0.222957 1.000000 0.041939 0.129512 -0.345561 -0.163781 0.509341 0.646856 0.256373 -0.288560 -0.124880 0.203676 -0.078795 0.600727 -0.606357 -0.100321 -0.351435 -0.166565 0.518000 1.028631 0.407684 -0.458869 -0.102309 0.365898 -0.263589 0.729769 -0.990507 -0.155092 -0.328973 -0.661846 0.510900 0.178028 0.962215 0.122341 0.587550 -0.252324 -0.633241 -0.258576 -0.300369 0.074296 0.962215 2.221239
35.000000 0.000000 94.000000 0.510000 8689.035000 35.000000 0.000000 0.179352 0.979260 0.094243 -0.983208 0.172349 0.067364 0.050541 -0.105705 0.993875 0.409549 -0.060862 -0.348687 0.478457 0.391033 0.608788 0.000000 0.000000 0.000000 1.000000 0.226134 0.107013 0.470388 1.000000 0.567737 0.384848 1.000000 0.145215 1.000000 0.226134 0.107013 1.000000 0.120461 0.224779 1.000000 0.042132 0.131953 0.409722 -0.061047 -0.348675 0.478585 0.391134 0.608430 -0.300383 0.780676 -0.480293 -0.238105 -0.076597 -0.609147 0.416688 -0.062085 -0.354603 0.761045 0.621982 0.967526 -0.450825 1.150004 -0.699180 -0.180589 -0.088137 -1.003039 0.138686 -0.369160 0.760077 0.252230 -0.399173 -1.020564 0.390808 -0.230583 0.260487 -0.529494 0.768334 -0.021648 1.020564 2.482199
36.000000 0.000000 104.000000 0.860000 14642.693000 36.000000 0.000000 -0.076541 0.068296 -0.994725 -0.980101 0.178244 0.086582 0.184067 0.981111 0.052576 -0.151704 -0.084652 0.236355 0.487932 -0.310285 -0.533157 0.000000 0.000000 0.000000 1.000000 0.191167 0.164383 0.356573 1.000000 0.601616 0.280427 1.000000 0.108317 1.000000 0.191167 0.164383 1.000000 0.196681 0.145617 1.000000 0.053610 0.101803 -0.151789 -0.084389 0.236178 0.487895 -0.310072 -0.533366 -0.320396 0.645529 -0.325132 -0.098792 -0.151816 -0.562398 -0.154370 -0.085823 0.240193 0.775850 -0.493077 -0.848158 -0.467132 0.974813 -0.507681 -0.053544 -0.219082 -0.919192 -0.546021 -0.143426 0.087458 0.490053 0.824078 0.190599 0.131560 -0.501919 -0.278057 0.414461 -0.680652 0.011866 0.824078 2.196965
37.000000 0.000000 104.000000 0.920000 13952.204000 37.000000 0.000000 0.183960 0.981545 0.052238 -0.980349 0.178153 0.086833 0.076776 -0.067988 0.995033 0.161888 -0.019817 -0.142071 0.488463 0.315900 0.472425 0.000000 0.000000 0.000000 1.000000 0.190291 0.164989 0.355425 1.000000 0.601134 0.279598 1.000000 0.107760 1.000000 0.190291 0.164989 1.000000 0.196960 0.144897 1.000000 0.054395 0.101144 0.161685 -0.019406 -0.142279 0.488535 0.315787 0.472054 -0.248095 0.595428 -0.347334 -0.060616 -0.113355 -0.547464 0.164434 -0.019736 -0.144698 0.776868 0.502165 0.750661 -0.386461 0.918135 -0.531674 -0.014888 -0.164681 -0.882341 -0.036960 -0.446976 0.597350 0.187334 -0.115503 -0.749814 0.497409 -0.136902 0.152464 -0.460448 0.562479 -0.050432 0.749814 2.080890
38.000000 0.000000 101.000000 1.000000 13667.469000 38.000000 0.000000 0.183790 0.981607 0.051659 -0.980276 0.177837 0.087056 0.076986 -0.067590 0.994854 0.063088 -0.009964 -0.053124 0.439906 0.402703 0.551066 0.000000 0.000000 0.000000 1.000000 0.188986 0.165696 0.353668 1.000000 0.600373 0.278618 1.000000 0.107222 1.000000 0.188986 0.165696 1.000000 0.197634 0.143729 1.000000 0.055241 0.100389 0.063162 -0.010406 -0.052756 0.439627 0.402591 0.551102 -0.260659 0.658691 -0.398032 0.033915 -0.003869 -0.575514 0.064236 -0.010583 -0.053653 0.699095 0.640200 0.876362 -0.409801 1.035756 -0.625956 0.085000 -0.000094 -0.920141 0.006501 -0.516220 0.577310 0.054588 -0.120497 -0.691306 0.595050 0.024241 0.113996 -0.601550 0.636717 -0.078829 0.691306 2.238410
39.000000 0.000000 85.000000 6.750000 9124.604000 39.000000 0.000000 0.182926 0.982067 0.045644 -0.976547 0.172583 0.093287 0.076012 -0.065065 0.991692 -2.407628 1.553476 0.854151 -3.565315 2.363379 2.447995 0.000000 0.000000 0.000000 1.000000 0.165325 0.181373 0.338222 1.000000 0.591261 0.274852 1.000000 0.108961 1.000000 0.165325 0.181373 1.000000 0.206211 0.133854 1.000000 0.056519 0.096600 -2.407137 1.553088 0.854048 -3.564044 2.362592 2.447481 1.163239 0.987638 -2.150877 1.372036 4.835526 0.010175 -2.448058 1.579491 0.868567 -5.667543 3.756994 3.891985 1.034218 2.219762 -3.253980 1.315063 7.473849 0.352444 2.203311 -0.864261 -2.424219 -5.491791 -2.548655 2.078875 0.629138 5.256668 0.345343 -2.832449 3.412916 0.235123 5.491791 14.071747
40.000000 0.000000 99.000000 0.520000 14317.723000 40.000000 0.000000 0.184899 0.981774 0.043963 -0.980033 0.179804 0.091211 0.082739 -0.060949 0.995657 0.500990 -0.055577 -0.445413 0.614232 0.383792 0.335557 0.000000 0.000000 0.000000 1.000000 0.182976 0.177740 0.335841 1.000000 0.611098 0.260235 1.000000 0.100044 1.000000 0.182976 0.177740 1.000000 0.212271 0.129332 1.000000 0.074625 0.086045 0.500466 -0.055350 -0.445116 0.613972 0.383545 0.335259 -0.247890 0.748276 -0.500386 -0.310348 -0.340043 -0.463114 0.508974 -0.056291 -0.452683 0.976339 0.609913 0.533129 -0.371763 1.105837 -0.734073 -0.238937 -0.490898 -0.771353 0.081176 -0.416816 0.878353 0.380361 -0.211655 -1.008833 0.223642 -0.573535 0.130480 -0.304818 0.628471 0.193174 1.008833 2.351402
41.000000 0.000000 110.000000 0.560000 20269.696000 41.000000 0.000000 0.184856 0.981795 0.043669 -0.979847 0.180392 0.090605 0.082465 -0.060516 0.995291 0.319147 -0.104907 -0.214240 0.769940 0.352758 0.033614 0.000000 0.000000 0.000000 1.000000 0.184960 0.176690 0.333533 1.000000 0.609368 0.260053 1.000000 0.100585 1.000000 0.184960 0.176690 1.000000 0.213011 0.128530 1.000000 0.074734 0.085184 0.319079 -0.104986 -0.214093 0.769524 0.353072 0.033518 -0.216839 0.632330 -0.415491 -0.057993 -0.606228 -0.341559 0.324503 -0.106771 -0.217732 1.223697 0.561455 0.053300 -0.292520 0.939594 -0.647074 0.050776 -0.933069 -0.575163 -0.094293 -0.552718 0.904852 0.446426 0.256446 -0.742699 0.299965 -0.699180 -0.162154 -0.205672 0.296272 0.252753 0.904852 2.385935
42.000000 0.000000 108.000000 0.560000 20844.648000 42.000000 0.000000 0.185010 0.981751 0.044000 -0.980349 0.180151 0.090781 0.082337 -0.060863 0.996286 0.806828 -0.081604 -0.725223 0.617518 0.340743 0.258396 0.000000 0.000000 0.000000 1.000000 0.184485 0.176731 0.336258 1.000000 0.610356 0.259808 1.000000 0.101058 1.000000 0.184485 0.176731 1.000000 0.212567 0.129191 1.000000 0.073960 0.085930 0.806713 -0.081707 -0.725005 0.617398 0.340554 0.258253 -0.238239 0.772766 -0.534527 -0.585670 -0.444475 -0.380800 0.820427 -0.083096 -0.737331 0.981786 0.541549 0.410673 -0.346867 1.094794 -0.747927 -0.518877 -0.626427 -0.660965 0.189136 -0.253037 0.990760 0.548587 -0.402796 -1.204421 -0.067483 -0.869107 0.213660 -0.121653 0.655833 0.320520 1.204421 2.472445
43.000000 0.000000 104.000000 0.570000 18441.553000 43.000000 0.000000 0.082092 -0.060371 0.994795 0.979162 -0.179635 -0.090363 0.184672 0.980629 0.043631 -0.528021 -0.124690 0.652712 -0.363826 0.319924 -0.667833 0.000000 0.000000 0.000000 1.000000 0.184133 0.176204 0.334463 1.000000 0.608788 0.259402 1.000000 0.101246 1.000000 0.184133 0.176204 1.000000 0.213044 0.128408 1.000000 0.074158 0.085221 -0.528240 -0.124616 0.652856 -0.363948 0.320019 -0.667497 -0.328701 0.769980 -0.441279 -0.437712 -0.396078 -0.494496 -0.537220 -0.126734 0.663955 -0.578751 0.508894 -1.061453 -0.464990 1.106220 -0.641230 -0.378279 -0.565619 -0.839513 0.276449 -0.139061 -0.196099 -0.611609 0.687440 1.159988 -0.179233 0.293315 -0.963889 -0.097216 -0.548379 0.318294 1.159988 2.506009
44.000000 0.000000 101.000000 0.700000 15091.924000 44.000000 0.000000 0.184938 0.981799 0.043232 -0.980036 0.179663 0.090361 0.082154 -0.060002 0.995538 0.393564 -0.063277 -0.330287 0.667682 0.339097 0.474223 0.000000 0.000000 0.000000 1.000000 0.183651 0.176201 0.332488 1.000000 0.608214 0.259006 1.000000 0.101486 1.000000 0.183651 0.176201 1.000000 0.214074 0.127510 1.000000 0.074667 0.084419 0.392990 -0.063543 -0.329446 0.666835 0.338847 0.473249 -0.317511 0.735386 -0.417875 -0.232909 -0.286751 -0.610223 0.399671 -0.064624 -0.335047 1.060401 0.538834 0.752560 -0.476322 1.100121 -0.623800 -0.175918 -0.417195 -1.000544 -0.023381 -0.463338 0.842432 0.402476 -0.174272 -1.040085 0.440191 -0.425623 0.197653 -0.416810 0.637609 0.023147 1.040085 2.521442
45.000000 0.000000 90.000000 0.630000 9275.657000 45.000000 0.000000 0.185263 0.981726 0.043482 -0.979708 0.179819 0.090121 0.082048 -0.060166 0.995599 0.309309 0.167096 -0.476405 0.738469 0.288739 0.527052 0.000000 0.000000 0.000000 1.000000 0.184506 0.175596 0.333374 1.000000 0.609720 0.259532 1.000000 0.102145 1.000000 0.184506 0.175596 1.000000 0.214421 0.128073 1.000000 0.074362 0.084724 0.309068 0.166754 -0.475822 0.737585 0.288042 0.526283 -0.132463 0.627514 -0.495051 -0.277942 -0.307154 -0.760952 0.314322 0.169589 -0.483911 1.172907 0.458044 0.836895 -0.306521 0.982287 -0.675766 -0.228941 -0.455279 -1.203881 -0.232754 -0.606746 0.724920 0.350929 -0.188701 -1.146376 0.494621 -0.463054 0.421456 -0.261867 0.795447 0.112125 1.146376 2.720353
46.000000 0.000000 108.000000 0.960000 11830.990000 46.000000 0.000000 -0.047242 0.082990 -0.995430 0.982120 -0.185876 -0.060628 -0.190367 -0.983234 -0.074335 1.874905 0.482815 -2.357720 -0.149933 -0.689602 0.734483 0.000000 0.000000 0.000000 1.000000 0.256676 0.099790 0.391141 1.000000 0.564101 0.346953 1.000000 0.175093 1.000000 0.256676 0.099790 1.000000 0.180557 0.184315 1.000000 0.015960 0.116143 1.874651 0.482911 -2.357562 -0.150085 -0.689362 0.734280 0.362045 -1.386473 1.024428 1.831428 -0.401396 -0.789340 1.906521 0.491120 -2.397641 -0.238665 -1.096223 1.167652 0.355770 -1.709967 1.354197 1.793856 -0.844699 -1.029945 0.227738 1.122800 0.032869 0.927931 -2.331293 -2.136424 -1.377909 -1.183040 2.103555 1.150171 1.208492 0.255109 2.331293 4.722635
47.000000 0.000000 102.000000 1.320000 10866.086000 47.000000 0.000000 0.189386 0.979098 0.074161 -0.977792 0.184730 0.058949 0.046228 -0.082603 0.991447 -2.401969 0.761708 1.640261 1.014621 -0.705439 -0.031830 0.000000 0.000000 0.000000 1.000000 0.258167 0.096649 0.390720 1.000000 0.561501 0.347222 1.000000 0.176760 1.000000 0.258167 0.096649 1.000000 0.180695 0.183970 1.000000 0.017404 0.114651 -2.412383 0.764981 1.647402 1.019337 -0.708385 -0.031816 0.559478 -1.406613 0.847135 1.754554 -0.548549 -1.103293 -2.453393 0.777985 1.675408 1.620950 -1.126474 -0.050595 0.515427 -1.686765 1.171338 1.719637 -1.089333 -1.493131 -2.440836 -1.521074 -1.117336 -0.197574 2.367981 1.044481 2.326671 1.003171 0.072855 0.114165 -0.846907 -0.805597 2.440836 5.083702
48.000000 0.000000 103.000000 0.510000 15226.782000 48.000000 0.000000 0.189491 0.979070 0.074256 -0.979950 0.184447 0.059397 0.045760 -0.084497 0.993603 -0.942975 0.129717 0.813258 0.705893 0.138435 0.346912 0.000000 0.000000 0.000000 1.000000 0.257215 0.097374 0.396431 1.000000 0.561615 0.347742 1.000000 0.177552 1.000000 0.257215 0.097374 1.000000 0.180205 0.183863 1.000000 0.020827 0.114488 -0.946673 0.129861 0.816812 0.708600 0.139174 0.348244 -0.097401 0.046456 0.050945 0.878399 -0.219530 -0.778443 -0.962766 0.132069 0.830697 1.126815 0.221314 0.553777 -0.208150 0.262248 -0.054098 0.930079 -0.430521 -1.155276 -0.816634 -0.997336 0.103407 -0.077295 0.966120 0.046080 1.418277 0.498237 -0.149487 -0.601643 0.031216 -0.420941 1.418277 2.706974
49.000000 0.000000 111.000000 0.430000 18523.762000 49.000000 0.000000 0.189690 0.979022 0.074387 -0.980471 0.184268 0.059609 0.045949 -0.085202 0.994168 -0.569546 0.012854 0.556691 0.744167 0.372503 0.573631 0.000000 0.000000 0.000000 1.000000 0.256654 0.097726 0.398819 1.000000 0.563390 0.348060 1.000000 0.177292 1.000000 0.256654 0.097726 1.000000 0.180138 0.184155 1.000000 0.021409 0.115146 -0.571818 0.013112 0.558705 0.747276 0.374400 0.575723 -0.280511 0.484461 -0.203950 0.631654 -0.154962 -0.865569 -0.581539 0.013335 0.568203 1.188318 0.595370 0.915514 -0.442321 0.873423 -0.431101 0.704575 -0.294335 -1.334205 -0.484926 -0.971044 0.485332 -0.000786 0.580752 -0.389506 1.328266 0.358008 -0.095826 -0.843340 0.390292 -0.357222 1.328266 2.967495
50.000000 0.000000 109.000000 0.430000 17952.797000 50.000000 0.000000 0.189502 0.978987 0.075318 -0.981096 0.184411 0.059568 0.045796 -0.085840 0.995292 0.029330 -0.022142 -0.007188 0.733023 0.196953 0.446609 0.000000 0.000000 0.000000 1.000000 0.257478 0.097136 0.402948 1.000000 0.563743 0.348365 1.000000 0.177182 1.000000 0.257478 0.097136 1.000000 0.178064 0.185809 1.000000 0.022561 0.115075 0.029684 -0.022594 -0.007090 0.736188 0.197850 0.448814 -0.249534 0.479075 -0.229541 0.054065 -0.327109 -0.707895 0.030188 -0.022978 -0.007210 1.170686 0.314622 0.713704 -0.384943 0.752730 -0.367787 0.095479 -0.517272 -1.130443 -0.327782 -0.584669 0.628079 0.371192 0.171294 -0.784567 0.754031 -0.201830 0.156488 -0.426249 0.413375 -0.169362 0.784567 2.436973
51.000000 0.000000 102.000000 2.170000 11418.354000 51.000000 0.000000 0.188068 0.978545 0.084141 -0.983487 0.183635 0.050484 0.039271 -0.090723 1.001517 2.687233 0.946794 -3.634027 2.317263 -1.412636 0.499527 0.000000 0.000000 0.000000 1.000000 0.273482 0.073580 0.429660 1.000000 0.553319 0.359022 1.000000 0.189074 1.000000 0.273482 0.073580 1.000000 0.163663 0.199242 1.000000 0.040997 0.105051 2.698749 0.950975 -3.649724 2.326993 -1.418326 0.501314 0.622097 -0.113544 -0.508553 -3.268233 -2.127262 -1.701778 2.744628 0.967141 -3.711769 3.700384 -2.255423 0.797189 0.413153 -0.511752 0.098598 -3.507107 -3.192161 -2.797718 -1.705792 0.135753 1.315559 3.157104 -1.450589 -4.471939 -0.799687 -3.821037 3.156381 2.505479 1.314836 0.663934 4.471939 9.571531
52.000000 0.000000 111.000000 0.460000 19715.515000 52.000000 0.000000 0.185758 0.979317 0.080202 -0.982447 0.181383 0.050572 0.036055 -0.089153 0.995589 0.183396 -0.144781 -0.038615 0.618808 0.380322 0.403742 0.000000 0.000000 0.000000 1.000000 0.266345 0.076011 0.407245 1.000000 0.529417 0.362871 1.000000 0.192961 1.000000 0.266345 0.076011 1.000000 0.166359 0.191438 1.000000 0.045109 0.098212 0.184200 -0.145107 -0.039093 0.621537 0.381991 0.405187 -0.319836 0.686014 -0.366178 0.022957 -0.263379 -0.548877 0.187331 -0.147574 -0.039758 0.988369 0.607442 0.644329 -0.431966 1.032715 -0.600749 0.093979 -0.400804 -0.902093 -0.018788 -0.514763 0.788212 0.292237 0.047745 -0.759255 0.573837 -0.233162 -0.028957 -0.555049 0.467018 -0.059075 0.788212 2.317484
53.000000 0.000000 115.000000 0.920000 20127.087000 53.000000 0.000000 0.186449 0.978969 0.082805 -0.985816 0.182620 0.050186 0.036301 -0.092272 1.000448 3.036641 -0.773704 -2.262937 1.191730 0.356340 0.430659 0.000000 0.000000 0.000000 1.000000 0.271137 0.073657 0.423854 1.000000 0.536901 0.363403 1.000000 0.192713 1.000000 0.271137 0.073657 1.000000 0.162662 0.195879 1.000000 0.048840 0.099859 3.049428 -0.777059 -2.272368 1.196684 0.357735 0.432258 -0.884807 1.893062 -1.008255 -2.268004 -1.133263 -0.400523 3.101268 -0.790270 -2.310999 1.902967 0.568870 0.687377 -1.036066 2.316775 -1.280709 -2.209235 -1.546537 -0.946513 1.044071 0.579591 2.597837 2.133356 -1.713286 -3.267052 -1.152045 -2.705811 0.669215 0.107975 1.133695 0.572455 3.267052 6.052008
54.000000 0.000000 113.000000 1.240000 20271.369000 54.000000 0.000000 0.187388 0.978607 0.084940 -0.987249 0.179737 0.052831 0.036355 -0.095024 1.004652 4.833149 -0.000647 -4.832502 -0.051522 0.411705 2.277862 0.000000 0.000000 0.000000 1.000000 0.261834 0.078330 0.441673 1.000000 0.546662 0.364080 1.000000 0.193791 1.000000 0.261834 0.078330 1.000000 0.159883 0.200833 1.000000 0.052529 0.101326 4.853223 -0.000405 -4.852818 -0.051727 0.413383 2.287271 -0.657254 2.583673 -1.926420 -4.689947 0.686975 -1.039336 4.935728 -0.000412 -4.935316 -0.082256 0.657362 3.637219 -1.134399 3.199126 -2.064727 -4.896508 1.461611 -2.005826 2.317118 1.780384 2.249957 1.713223 -5.548306 -5.481144 -2.578529 -2.511367 3.231187 0.261411 3.767921 0.798145 5.548306 10.680958
55.000000 0.000000 112.000000 0.540000 20454.932000 55.000000 0.000000 0.186039 0.979111 0.082042 -0.984146 0.182513 0.050408 0.035925 -0.091161 0.998303 1.752529 -0.427133 -1.325396 0.824672 0.332134 0.125997 0.000000 0.000000 0.000000 1.000000 0.270069 0.074612 0.417346 1.000000 0.533115 0.364184 1.000000 0.193266 1.000000 0.270069 0.074612 1.000000 0.163487 0.194746 1.000000 0.047984 0.098754 1.760113 -0.429326 -1.330787 0.828553 0.333397 0.126739 -0.454975 1.193914 -0.738939 -1.244113 -0.814124 -0.201315 1.790035 -0.436624 -1.353410 1.317565 0.530169 0.201541 -0.520079 1.502953 -0.982873 -1.166082 -1.147447 -0.496883 0.587577 0.154696 1.663364 1.230483 -0.827691 -1.903479 -0.663134 -1.738921 0.240115 0.075557 0.672996 0.508438 1.903479 3.743381
56.000000 0.000000 117.000000 0.460000 21354.375000 56.000000 0.000000 0.186079 0.979194 0.080953 -0.982558 0.181754 0.050764 0.035867 -0.089949 0.995967 0.391316 -0.122118 -0.269198 0.511997 0.386414 0.374399 0.000000 0.000000 0.000000 1.000000 0.267236 0.076056 0.410613 1.000000 0.531371 0.364613 1.000000 0.193814 1.000000 0.267236 0.076056 1.000000 0.165592 0.193148 1.000000 0.046419 0.098265 0.393178 -0.122503 -0.270674 0.514416 0.388326 0.375755 -0.272828 0.722623 -0.449794 -0.183862 -0.219369 -0.443451 0.399862 -0.124586 -0.275276 0.818024 0.617517 0.597526 -0.373681 1.056553 -0.682873 -0.118114 -0.315285 -0.747421 0.132248 -0.371952 0.800162 0.295962 -0.185606 -0.853520 0.302272 -0.365642 0.053358 -0.434520 0.557558 0.069680 0.853520 2.144613
57.000000 0.000000 115.000000 0.420000 18626.568000 57.000000 0.000000 0.186188 0.979179 0.080886 -0.982447 0.181896 0.050785 0.035963 -0.089767 0.995899 0.337337 -0.094341 -0.242997 0.538612 0.322569 0.350730 0.000000 0.000000 0.000000 1.000000 0.267490 0.076122 0.410255 1.000000 0.531872 0.364358 1.000000 0.193808 1.000000 0.267490 0.076122 1.000000 0.165923 0.193069 1.000000 0.045978 0.098382 0.338777 -0.094487 -0.244290 0.540769 0.323901 0.351697 -0.241764 0.636592 -0.394828 -0.162435 -0.253536 -0.460719 0.344536 -0.096093 -0.248443 0.859931 0.515068 0.559269 -0.338730 0.934502 -0.595771 -0.105084 -0.374520 -0.767850 0.039096 -0.381455 0.741227 0.320676 -0.119338 -0.821469 0.337303 -0.364827 0.080242 -0.376400 0.500793 0.044151 0.821469 2.058438
58.000000 0.000000 113.000000 0.410000 17366.581000 58.000000 0.000000 0.186363 0.979149 0.080843 -0.982472 0.182051 0.050724 0.035967 -0.089756 0.996042 0.400802 -0.079918 -0.320884 0.573039 0.327601 0.369105 0.000000 0.000000 0.000000 1.000000 0.267940 0.075985 0.410438 1.000000 0.532510 0.364212 1.000000 0.194102 1.000000 0.267940 0.075985 1.000000 0.166365 0.192986 1.000000 0.045926 0.098405 0.402578 -0.080499 -0.322080 0.575640 0.329228 0.370369 -0.235440 0.669762 -0.434321 -0.225925 -0.278826 -0.487809 0.409422 -0.081867 -0.327555 0.915382 0.523539 0.588961 -0.337621 0.978013 -0.640392 -0.168418 -0.410160 -0.814129 0.040598 -0.386869 0.788005 0.360537 -0.167608 -0.915015 0.313276 -0.434131 0.127010 -0.353874 0.554478 0.073593 0.915015 2.190687
59.000000 0.000000 111.000000 0.430000 15367.366000 59.000000 0.000000 0.186444 0.979133 0.080850 -0.982639 0.182121 0.050677 0.035926 -0.089840 0.996265 0.534194 -0.120220 -0.413974 0.584421 0.357779 0.392860 0.000000 0.000000 0.000000 1.000000 0.268198 0.075859 0.410878 1.000000 0.532748 0.364126 1.000000 0.194308 1.000000 0.268198 0.075859 1.000000 0.166506 0.192958 1.000000 0.046108 0.098364 0.536553 -0.120730 -0.415823 0.586654 0.359327 0.394518 -0.278883 0.760775 -0.481892 -0.322927 -0.290591 -0.483217 0.545674 -0.122782 -0.422892 0.932898 0.571402 0.627363 -0.387051 1.091461 -0.704410 -0.262883 -0.417457 -0.821095 0.125316 -0.341232 0.887024 0.420476 -0.270682 -1.032389 0.241558 -0.520150 0.145365 -0.366875 0.611913 0.099674 1.032389 2.347053
60.000000 0.000000 103.000000 0.560000 11815.407000 60.000000 0.000000 0.186600 0.979066 0.081297 -0.982606 0.182243 0.050570 0.035917 -0.090020 0.996534 0.622506 -0.015621 -0.606886 0.646495 0.208337 0.405856 0.000000 0.000000 0.000000 1.000000 0.268826 0.075417 0.412554 1.000000 0.533970 0.364506 1.000000 0.194576 1.000000 0.268826 0.075417 1.000000 0.166083 0.193871 1.000000 0.046328 0.098456 0.625702 -0.015950 -0.609752 0.649500 0.209106 0.407332 -0.186170 0.636591 -0.450421 -0.501731 -0.361504 -0.556291 0.636339 -0.016221 -0.620117 1.032836 0.332520 0.647739 -0.299166 0.895434 -0.596268 -0.471152 -0.526115 -0.932498 -0.019496 -0.290998 0.823811 0.552309 -0.355731 -1.199038 0.173146 -0.670161 0.375227 -0.153650 0.646729 0.117852 1.199038 2.444434
61.000000 0.000000 118.000000 0.490000 37278.487000 0.000000 1.000000 -0.194961 0.833048 -0.517708 0.698019 0.487995 0.525282 0.689463 -0.257345 -0.674637 -0.332618 -0.977637 1.310255 -0.652064 -0.234890 0.752096 0.000000 0.000000 0.000000 0.007140 1.000000 0.478957 0.146632 0.870926 1.000000 1.000000 0.645594 0.261966 0.007140 1.000000 0.478957 0.768291 0.723633 1.000000 0.170536 0.012811 1.000000 -0.332524 -0.977539 1.310063 -0.651983 -0.234667 0.752293 -0.630196 1.002311 -0.372115 -0.066805 -0.685953 -1.091874 -0.338177 -0.994157 1.332334 -1.036783 -0.373168 1.196296 -1.081129 1.595961 -0.514832 -0.292155 -0.838998 -1.142124 0.538722 0.843413 -0.307807 -0.003117 -0.229667 0.616862 0.747104 1.593634 -0.309055 -1.285827 -0.613746 -1.590517 1.593634 3.500376
62.000000 0.000000 96.000000 4.940000 8717.334000 1.000000 1.000000 -0.192549 0.835249 -0.515057 -0.697344 -0.487065 -0.534574 -0.687203 0.259504 0.677210 1.226756 -3.349020 2.122264 4.586272 -0.147115 -1.383153 0.000000 0.000000 0.000000 0.002695 1.000000 0.462372 0.142421 0.836285 1.000000 1.000000 0.640291 0.268389 0.002695 1.000000 0.462372 0.800468 0.726844 1.000000 0.170427 0.013209 1.000000 1.226645 -3.348628 2.121983 4.585840 -0.147460 -1.382719 3.416749 -4.273297 0.856549 -2.313688 -2.364213 -2.301491 1.247498 -3.405554 2.158056 7.292403 -0.234491 -2.198799 5.774137 -6.391982 0.617845 -3.621827 -3.464819 -2.135875 -1.173241 -0.981780 4.780981 4.972442 4.246501 -1.707721 2.451189 -3.503033 -3.073260 -1.277948 -3.264721 -1.469409 4.972442 14.174746
63.000000 0.000000 116.000000 0.330000 27322.363000 2.000000 1.000000 -0.195255 0.833314 -0.517169 -0.697296 -0.488300 -0.525244 -0.689849 0.256827 0.675044 -0.321156 -0.591121 0.912277 -0.529878 0.199844 -0.441687 0.000000 0.000000 0.000000 0.007306 1.000000 0.481314 0.148945 0.868319 1.000000 1.000000 0.646384 0.263226 0.007306 1.000000 0.481314 0.770664 0.729322 1.000000 0.169752 0.013889 1.000000 -0.321505 -0.590980 0.912486 -0.529920 0.199874 -0.441582 -0.439317 0.780815 -0.341498 0.043433 -0.398771 -0.733373 -0.326971 -0.601027 0.927998 -0.842679 0.317840 -0.702204 -0.776850 1.222265 -0.445415 -0.078579 -0.452375 -0.781123 0.585662 0.326147 -0.102382 -0.361897 0.454990 1.143035 -0.118357 0.569687 -1.040653 -0.467306 -0.781138 -0.207791 1.143035 2.430359
64.000000 0.000000 109.000000 1.080000 16849.321000 3.000000 1.000000 -0.194527 0.833629 -0.516935 -0.697439 -0.488482 -0.525842 -0.689901 0.256900 0.675282 -0.081833 -0.854444 0.936277 -0.290962 0.357813 -0.142136 0.000000 0.000000 0.000000 0.006934 1.000000 0.480852 0.148169 0.866600 1.000000 1.000000 0.643602 0.265000 0.006934 1.000000 0.480852 0.773002 0.726431 1.000000 0.169210 0.014191 1.000000 -0.081893 -0.854011 0.935904 -0.290967 0.357429 -0.142033 -0.193314 0.394883 -0.201569 0.005130 -0.131281 -0.950969 -0.083285 -0.868529 0.951814 -0.462696 0.568383 -0.225861 -0.324011 0.666603 -0.342592 -0.093684 -0.039308 -1.038315 0.741511 0.277428 0.363721 -0.100362 0.325890 0.703680 0.141475 0.519265 -1.067401 -0.882986 -0.603318 -0.418903 1.067401 2.065266
65.000000 0.000000 108.000000 1.130000 14768.862000 4.000000 1.000000 -0.193778 0.833710 -0.517086 -0.697224 -0.487871 -0.526881 -0.690132 0.257084 0.674688 -0.113618 -0.984960 1.098577 -0.136539 0.403972 -0.402761 0.000000 0.000000 0.000000 0.005527 1.000000 0.476555 0.148375 0.863941 1.000000 1.000000 0.640147 0.266423 0.005527 1.000000 0.476555 0.773955 0.724061 1.000000 0.168154 0.015212 1.000000 -0.113885 -0.984759 1.098644 -0.136450 0.403998 -0.402673 -0.089183 0.383767 -0.294585 -0.194255 -0.360348 -1.072500 -0.115821 -1.001500 1.117321 -0.216983 0.642437 -0.640331 -0.166258 0.651506 -0.485248 -0.431381 -0.372674 -1.154765 0.712434 0.187886 0.535268 0.010720 0.676259 0.853425 0.153431 0.330597 -1.388692 -0.865865 -0.864145 -0.341317 1.388692 2.450862
66.000000 0.000000 108.000000 0.600000 12633.573000 5.000000 1.000000 -0.193695 0.833595 -0.517303 -0.696738 -0.487209 -0.527771 -0.691077 0.256624 0.674296 -0.086374 -0.767460 0.853833 -0.298205 0.519950 -0.917661 0.000000 0.000000 0.000000 0.004054 1.000000 0.474003 0.150881 0.858672 1.000000 1.000000 0.638169 0.267165 0.004054 1.000000 0.474003 0.774653 0.727029 1.000000 0.166649 0.017222 1.000000 -0.086661 -0.766970 0.853631 -0.298464 0.519876 -0.917664 -0.361230 0.814854 -0.453623 -0.575788 -0.529229 -0.867145 -0.088134 -0.780008 0.868143 -0.474617 0.826706 -1.459270 -0.593828 1.329007 -0.735179 -1.009874 -0.685609 -0.950528 0.813719 0.138716 0.426196 -0.248807 0.792381 1.179905 -0.399108 -0.011584 -1.606101 -0.414612 -0.931098 0.260391 1.606101 3.342050
67.000000 0.000000 104.000000 0.670000 9937.607000 6.000000 1.000000 -0.193570 0.833634 -0.517286 -0.696613 -0.487225 -0.528327 -0.691375 0.256515 0.674413 0.070907 -0.824127 0.753220 -0.164923 0.598724 -0.984878 0.000000 0.000000 0.000000 0.003454 1.000000 0.473485 0.151537 0.856128 1.000000 1.000000 0.637164 0.267572 0.003454 1.000000 0.473485 0.776032 0.727991 1.000000 0.166114 0.017664 1.000000 0.071109 -0.824043 0.752935 -0.164925 0.598803 -0.984544 -0.299157 0.701089 -0.401932 -0.768474 -0.503407 -0.874840 0.072317 -0.838052 0.765735 -0.262265 0.952217 -1.565622 -0.455163 1.179192 -0.724029 -1.275279 -0.672653 -0.966378 0.867467 0.089985 0.653329 -0.124153 0.815180 1.029318 -0.463145 -0.249007 -1.682647 -0.404321 -0.905165 0.373160 1.682647 3.495838
68.000000 0.000000 95.000000 0.480000 7705.131000 7.000000 1.000000 -0.193610 0.833436 -0.517590 -0.696285 -0.487268 -0.528906 -0.691608 0.256608 0.673799 0.027802 -0.966300 0.938498 -0.071884 0.492763 -1.226525 0.000000 0.000000 0.000000 0.001938 1.000000 0.471378 0.152594 0.856242 1.000000 1.000000 0.636637 0.267066 0.001938 1.000000 0.471378 0.775492 0.729293 1.000000 0.165613 0.017509 1.000000 0.027959 -0.966379 0.938420 -0.071597 0.492602 -1.226388 -0.282855 0.678858 -0.396003 -0.856706 -0.804190 -0.964343 0.028434 -0.982808 0.954373 -0.113854 0.783336 -1.950202 -0.440208 1.145635 -0.705427 -1.440628 -1.115390 -1.023323 0.779114 0.139523 0.686152 0.046561 1.127699 1.220661 -0.464634 -0.371673 -1.906813 -0.314480 -1.267222 0.325111 1.906813 4.013218
69.000000 0.000000 98.000000 0.430000 7960.895000 8.000000 1.000000 -0.193693 0.833322 -0.517743 -0.695883 -0.487770 -0.528388 -0.691892 0.256815 0.673204 -0.126220 -0.811412 0.937633 -0.248137 0.262430 -0.942600 0.000000 0.000000 0.000000 0.001559 1.000000 0.471769 0.153897 0.861248 1.000000 1.000000 0.636301 0.266910 0.001559 1.000000 0.471769 0.773195 0.730176 1.000000 0.165026 0.016811 1.000000 -0.126561 -0.810780 0.937341 -0.248515 0.262242 -0.942533 -0.368530 0.685821 -0.317291 -0.458387 -0.732767 -0.833312 -0.128713 -0.824563 0.953276 -0.395189 0.417017 -1.498816 -0.616573 1.120444 -0.503871 -0.838258 -0.992087 -0.864579 0.615662 0.275169 0.292991 -0.047502 0.892274 1.214945 -0.331504 -0.008834 -1.507935 -0.284157 -1.167443 0.056336 1.507935 3.183927
70.000000 0.000000 87.000000 0.620000 6439.778000 9.000000 1.000000 -0.193712 0.833264 -0.517829 -0.695889 -0.487629 -0.528451 -0.691767 0.256981 0.672967 -0.204426 -0.858529 1.062955 -0.226246 0.173603 -1.062069 0.000000 0.000000 0.000000 0.001390 1.000000 0.470712 0.153685 0.861861 1.000000 1.000000 0.636507 0.266607 0.001390 1.000000 0.470712 0.772749 0.729811 1.000000 0.165183 0.016591 1.000000 -0.204642 -0.858165 1.062807 -0.226213 0.173541 -1.061500 -0.367957 0.702050 -0.334093 -0.451619 -0.914740 -0.866811 -0.208120 -0.872754 1.080874 -0.359723 0.275965 -1.687997 -0.635364 1.135599 -0.500235 -0.854343 -1.254283 -0.875593 0.530854 0.305530 0.237141 0.011817 1.068496 1.362208 -0.309749 -0.016036 -1.599350 -0.221105 -1.374025 0.004219 1.599350 3.482044
71.000000 0.000000 83.000000 1.000000 5292.579000 10.000000 1.000000 -0.193337 0.833361 -0.517812 -0.695739 -0.488071 -0.527559 -0.691051 0.257434 0.672145 -0.637630 -0.930398 1.568029 -0.275690 -0.048082 -0.474355 0.000000 0.000000 0.000000 0.001507 1.000000 0.470771 0.152403 0.870009 1.000000 1.000000 0.636157 0.267212 0.001507 1.000000 0.470771 0.769954 0.725618 1.000000 0.165517 0.015392 1.000000 -0.637354 -0.930298 1.567652 -0.275590 -0.048170 -0.474264 -0.126480 0.526993 -0.400513 0.273599 -0.846919 -1.071731 -0.648189 -0.946113 1.594302 -0.438244 -0.076599 -0.754175 -0.360901 0.786084 -0.425183 0.166798 -1.029659 -1.068992 0.269268 0.331811 -0.088557 -0.026014 1.044471 1.402296 0.428690 0.786515 -1.313739 -0.697958 -1.376282 -0.760501 1.402296 2.843541
72.000000 0.000000 101.000000 1.240000 9619.830000 11.000000 1.000000 0.756000 -0.628865 0.181641 -0.277340 -0.556263 -0.782316 0.593573 0.542096 -0.595475 -0.140447 0.676597 -0.536150 0.159957 0.163407 0.979140 0.000000 0.000000 0.000000 0.339540 0.937780 1.000000 1.000000 0.838695 0.098391 0.613066 1.000000 0.980884 0.339540 0.937780 1.000000 0.076312 0.025566 1.000000 0.320514 1.000000 0.530600 -0.140701 0.676544 -0.535843 0.159936 0.163528 0.979339 -0.533480 1.219700 -0.686220 -0.043279 -0.117200 -0.506508 -0.143093 0.688045 -0.544952 0.254331 0.260043 1.557344 -0.723993 1.615529 -0.891535 -0.180221 -0.325928 -0.921889 -0.336979 -0.549302 -0.129318 -0.341642 -0.696012 -0.903672 0.575555 0.367895 1.032990 -0.238576 1.245314 -0.026252 1.245314 2.976435
73.000000 0.000000 86.000000 4.500000 6297.413000 12.000000 1.000000 -0.757567 0.626609 -0.182901 -0.595611 -0.550134 0.599579 0.275432 0.562532 0.781894 3.388863 -4.945983 1.557120 2.326810 -0.401430 1.555419 0.000000 0.000000 0.000000 0.366455 0.943139 1.000000 1.000000 0.825479 0.091448 0.609106 1.000000 0.983146 0.366455 0.943139 1.000000 0.072109 0.031937 1.000000 0.325668 1.000000 0.541335 3.389597 -4.947019 1.557423 2.327380 -0.401315 1.555468 1.161554 1.348731 -2.510285 2.188201 3.712045 -1.972001 3.447220 -5.031118 1.583899 3.700999 -0.638171 2.473505 1.643411 1.118401 -2.761813 3.590500 3.697817 -2.778458 1.689808 2.210872 4.711662 5.232726 -0.259575 -3.281428 1.760033 -1.261820 -1.430233 -3.449842 -1.951297 -3.970906 5.232726 10.964715
74.000000 0.000000 114.000000 1.150000 22202.393000 13.000000 1.000000 0.787506 0.316022 -0.529116 0.143784 0.742057 0.654114 0.599973 -0.591353 0.539810 0.042052 0.447060 -0.489112 -0.272914 0.010681 -0.818425 0.000000 0.000000 0.000000 0.290911 1.000000 0.381327 1.000000 0.010895 0.195349 0.223199 1.000000 0.051769 0.290911 1.000000 0.381327 0.277570 0.716722 1.000000 0.126702 0.013388 1.000000 0.042231 0.447185 -0.489415 -0.272903 0.010600 -0.818129 -0.362441 0.651399 -0.288958 0.334987 -0.227495 -0.693545 0.042949 0.454787 -0.497735 -0.433970 0.016856 -1.300988 -0.495761 0.787861 -0.292101 0.501646 -0.217601 -1.155197 0.015917 0.002154 -0.338418 -0.352181 0.133226 0.487560 -0.929027 -0.574692 -0.149142 0.913111 -0.135379 0.926873 0.929027 2.515587
75.000000 0.000000 116.000000 1.020000 26758.515000 14.000000 1.000000 -0.599660 0.590988 -0.539575 -0.787030 -0.315735 0.529096 0.143825 0.741660 0.653761 -0.467776 0.009281 0.458495 0.731431 0.344003 0.066606 0.000000 0.000000 0.000000 0.290777 1.000000 0.381850 1.000000 0.010880 0.195547 0.223093 1.000000 0.051290 0.290777 1.000000 0.381850 0.277837 0.717215 1.000000 0.126600 0.013187 1.000000 -0.468103 0.009424 0.458679 0.731843 0.344250 0.066646 -0.315369 0.662097 -0.346729 0.223288 -0.202318 -0.673444 -0.476061 0.009584 0.466477 1.163777 0.547427 0.105981 -0.413809 0.798548 -0.384739 0.325793 -0.192436 -1.125080 -0.449888 -0.896860 0.500332 0.053361 0.816633 -0.133587 0.903166 -0.047054 -0.366745 -0.453278 0.080227 -0.006306 0.903166 2.379569
76.000000 0.000000 117.000000 0.810000 28749.083000 15.000000 1.000000 -0.599757 0.590939 -0.539521 -0.786948 -0.315499 0.529342 0.144032 0.742099 0.653487 -0.411927 0.074036 0.337891 0.780370 0.209776 0.027209 0.000000 0.000000 0.000000 0.290569 1.000000 0.382633 1.000000 0.009749 0.196375 0.222806 1.000000 0.050782 0.290569 1.000000 0.382633 0.278453 0.717891 1.000000 0.126001 0.012872 1.000000 -0.412314 0.074440 0.337874 0.781086 0.209817 0.027462 -0.282748 0.526259 -0.243511 0.354834 -0.196457 -0.653547 -0.419324 0.075706 0.343618 1.242082 0.333651 0.043671 -0.395077 0.649563 -0.254486 0.537206 -0.180209 -1.078592 -0.572961 -0.845385 0.441195 0.168771 0.800719 -0.213437 0.836376 -0.177780 -0.227758 -0.263415 0.044666 0.009009 0.845385 2.327542
77.000000 0.000000 115.000000 0.620000 29146.771000 16.000000 1.000000 -0.599700 0.590897 -0.539630 -0.786969 -0.315281 0.529274 0.144017 0.742331 0.653318 -0.421456 0.153363 0.268093 0.798766 0.138092 -0.016853 0.000000 0.000000 0.000000 0.290974 1.000000 0.382810 1.000000 0.009074 0.196660 0.222910 1.000000 0.050465 0.290974 1.000000 0.382810 0.278882 0.718250 1.000000 0.125542 0.013104 1.000000 -0.421783 0.153253 0.268529 0.799333 0.138076 -0.017091 -0.272476 0.446888 -0.174412 0.426331 -0.239854 -0.635267 -0.428953 0.155859 0.273094 1.271099 0.219569 -0.027178 -0.403993 0.561836 -0.157843 0.648698 -0.224862 -1.040584 -0.668034 -0.847311 0.369814 0.190537 0.816629 -0.221219 0.794438 -0.243410 -0.148595 -0.126404 0.030682 0.052873 0.847311 2.327711
78.000000 0.000000 114.000000 0.670000 27167.655000 17.000000 1.000000 -0.599538 0.591048 -0.539645 -0.787048 -0.315072 0.529149 0.144146 0.742084 0.653483 -0.463842 0.180599 0.283243 0.736020 0.231300 -0.044320 0.000000 0.000000 0.000000 0.291836 1.000000 0.383471 1.000000 0.009592 0.196644 0.223266 1.000000 0.050612 0.291836 1.000000 0.383471 0.278331 0.719237 1.000000 0.125730 0.013145 1.000000 -0.464141 0.180800 0.283342 0.736491 0.231567 -0.044665 -0.298283 0.467766 -0.169484 0.321253 -0.296802 -0.634579 -0.472032 0.183873 0.288159 1.171168 0.368238 -0.071027 -0.446367 0.586867 -0.140499 0.478295 -0.296378 -1.041060 -0.595567 -0.896232 0.360688 0.060023 0.817470 -0.138785 0.759477 -0.196778 -0.221903 -0.163910 0.078762 0.136755 0.896232 2.246403
79.000000 0.000000 115.000000 0.700000 29730.564000 18.000000 1.000000 -0.599202 0.591399 -0.539633 -0.787179 -0.314822 0.529178 0.144234 0.741251 0.654021 -0.534868 0.069284 0.465584 0.403993 0.491556 0.034488 0.000000 0.000000 0.000000 0.293101 1.000000 0.385027 1.000000 0.011591 0.195920 0.223976 1.000000 0.050955 0.293101 1.000000 0.385027 0.277069 0.720413 1.000000 0.126590 0.013309 1.000000 -0.534834 0.068836 0.465998 0.404339 0.491769 0.034487 -0.284047 0.635402 -0.351355 -0.079980 -0.312471 -0.502510 -0.543926 0.070006 0.473919 0.642980 0.782011 0.054840 -0.371693 0.752161 -0.380469 -0.162134 -0.333209 -0.853818 -0.193877 -0.832387 0.331113 -0.307396 0.655640 0.130650 0.700417 0.175427 -0.461763 -0.506540 0.176746 0.131969 0.832387 1.967727
80.000000 0.000000 115.000000 0.700000 37817.683000 19.000000 1.000000 -0.599019 0.591538 -0.539684 -0.787672 -0.314727 0.529335 0.144093 0.741494 0.653623 -0.421480 -0.258656 0.680136 0.440719 0.221633 0.008249 0.000000 0.000000 0.000000 0.293142 1.000000 0.385691 1.000000 0.010594 0.196100 0.224885 1.000000 0.051029 0.293142 1.000000 0.385691 0.277962 0.721719 1.000000 0.126245 0.014341 1.000000 -0.421450 -0.259129 0.680580 0.441379 0.221716 0.008256 -0.428635 0.792971 -0.364335 0.129035 -0.069998 -0.322235 -0.428615 -0.263535 0.692149 0.701881 0.352573 0.013129 -0.510911 0.883454 -0.372543 0.184469 -0.068955 -0.595227 -0.209998 -0.497873 0.363086 0.075211 0.738732 0.165648 0.749452 0.176368 -0.528734 -0.539454 -0.240859 -0.251579 0.749452 1.717469
81.000000 0.000000 116.000000 0.710000 46092.119000 20.000000 1.000000 -0.598897 0.591561 -0.539794 -0.787874 -0.314556 0.529254 0.144337 0.741335 0.653441 -0.468124 -0.367963 0.836087 0.538648 0.311551 -0.043515 0.000000 0.000000 0.000000 0.293695 1.000000 0.386035 1.000000 0.010379 0.196566 0.225313 1.000000 0.050928 0.293695 1.000000 0.386035 0.278217 0.723645 1.000000 0.126281 0.014358 1.000000 -0.468013 -0.368176 0.836189 0.538696 0.311591 -0.043764 -0.596689 0.980999 -0.384309 0.119062 -0.057845 -0.406856 -0.475969 -0.374435 0.850404 0.856634 0.495492 -0.069593 -0.731721 1.096153 -0.364432 0.168040 -0.067189 -0.749336 -0.188887 -0.593455 0.510552 0.105984 0.919620 0.220182 0.862798 0.163359 -0.730733 -0.673911 -0.326166 -0.269343 0.919620 2.141830
82.000000 0.000000 116.000000 0.620000 40652.505000 21.000000 1.000000 -0.598546 0.591680 -0.540053 -0.787918 -0.314127 0.528961 0.144701 0.741801 0.653403 -0.428378 -0.072709 0.501087 0.704773 0.287335 -0.037383 0.000000 0.000000 0.000000 0.295077 1.000000 0.386400 1.000000 0.009351 0.197648 0.225904 1.000000 0.050712 0.295077 1.000000 0.386400 0.278128 0.726427 1.000000 0.125572 0.014500 1.000000 -0.428496 -0.072734 0.501230 0.705331 0.287301 -0.037387 -0.434145 0.685306 -0.251160 0.244694 -0.165147 -0.594764 -0.435780 -0.073971 0.509751 1.121617 0.456866 -0.059452 -0.582566 0.811875 -0.229309 0.364114 -0.166850 -1.005945 -0.419092 -0.792121 0.496705 0.123676 0.868181 -0.047616 0.819639 -0.096158 -0.449089 -0.400547 -0.076060 -0.027518 0.868181 2.256921
83.000000 0.000000 112.000000 0.520000 26482.303000 22.000000 1.000000 -0.598274 0.591784 -0.540240 -0.788066 -0.313873 0.529117 0.144272 0.741716 0.653583 -0.390773 -0.155294 0.546067 0.340070 0.235549 0.057702 0.000000 0.000000 0.000000 0.295725 1.000000 0.387234 1.000000 0.009841 0.196780 0.226530 1.000000 0.050374 0.295725 1.000000 0.387234 0.278271 0.725852 1.000000 0.125381 0.015602 1.000000 -0.390769 -0.155443 0.546213 0.340020 0.235583 0.058082 -0.288379 0.646929 -0.358550 0.056244 -0.101123 -0.289110 -0.397412 -0.158086 0.555498 0.540700 0.374624 0.092362 -0.329582 0.725806 -0.396224 0.068504 -0.098104 -0.525796 -0.165505 -0.471384 0.275975 -0.029904 0.572058 0.130578 0.647471 0.205991 -0.406553 -0.481966 -0.100673 -0.176086 0.647471 1.435602
84.000000 0.000000 105.000000 1.200000 17330.675000 23.000000 1.000000 -0.598358 0.592063 -0.539842 -0.788716 -0.313405 0.530302 0.144559 0.739922 0.654587 -0.270241 -1.028092 1.298333 -0.609997 0.898267 -0.051039 0.000000 0.000000 0.000000 0.295907 1.000000 0.391656 1.000000 0.014241 0.195144 0.227159 1.000000 0.049872 0.295907 1.000000 0.391656 0.276397 0.727116 1.000000 0.126999 0.015387 1.000000 -0.270473 -1.028263 1.298736 -0.610223 0.898453 -0.050883 -0.772740 1.328568 -0.555828 -1.076236 0.196812 0.241197 -0.275071 -1.045743 1.320814 -0.970377 1.428720 -0.080913 -0.822712 1.392012 -0.569300 -1.708202 0.101692 0.220665 1.294053 0.127508 0.501743 -0.664802 0.288396 1.080705 0.222330 1.014640 -1.582448 -1.516383 -0.415903 -0.349838 1.582448 3.652252
85.000000 0.000000 96.000000 0.770000 10569.899000 24.000000 1.000000 -0.597719 0.592199 -0.540401 -0.788106 -0.312606 0.529110 0.145646 0.742214 0.652078 -0.652975 -0.046380 0.699356 0.894509 -0.049917 -0.004623 0.000000 0.000000 0.000000 0.298226 1.000000 0.391154 1.000000 0.005857 0.200796 0.227376 1.000000 0.049673 0.298226 1.000000 0.391154 0.280614 0.734769 1.000000 0.124378 0.014680 1.000000 -0.653414 -0.046307 0.699722 0.894981 -0.049845 -0.004793 -0.448965 0.847457 -0.398491 0.646015 -0.217398 -0.508900 -0.664523 -0.047095 0.711617 1.423198 -0.079264 -0.007622 -0.572167 0.959780 -0.387614 0.988428 -0.181819 -0.893023 -0.865441 -0.800723 0.296595 0.361314 1.145937 -0.016100 1.139713 -0.022323 -0.280495 -0.274272 -0.345214 -0.338990 1.145937 2.742410
86.000000 0.000000 113.000000 1.030000 21969.516000 25.000000 1.000000 -0.982786 0.173313 0.063991 -0.179489 -0.979348 -0.093816 0.047989 -0.104707 0.993160 -0.036571 -0.108328 0.144898 -0.378525 0.878787 -0.331579 0.000000 0.000000 0.000000 1.000000 0.233022 0.100025 0.463519 1.000000 0.559644 0.386449 1.000000 0.151456 1.000000 0.233022 0.100025 1.000000 0.123045 0.222990 1.000000 0.045298 0.126756 -0.036872 -0.108183 0.145055 -0.378509 0.878923 -0.331697 -0.232145 0.582164 -0.350019 0.301578 -0.479483 -0.681423 -0.037499 -0.110022 0.147521 -0.601905 1.397664 -0.527465 -0.346945 0.941267 -0.594322 0.412888 -0.770706 -1.080444 0.845928 -0.295260 0.354475 -0.786713 0.045144 0.536597 -0.385530 0.105924 -0.891072 -0.460399 0.250116 0.680789 0.891072 2.799077
87.000000 0.000000 114.000000 0.750000 23538.663000 26.000000 1.000000 0.179628 0.979235 0.093980 -0.982736 0.173500 0.064141 0.048161 -0.104667 0.993153 -0.064762 -0.056784 0.121547 0.893782 0.253835 0.301299 0.000000 0.000000 0.000000 1.000000 0.233293 0.100264 0.464254 1.000000 0.560866 0.386382 1.000000 0.151283 1.000000 0.233293 0.100264 1.000000 0.122928 0.223446 1.000000 0.044900 0.127087 -0.064574 -0.056645 0.121219 0.894063 0.253636 0.301287 -0.242777 0.483678 -0.240901 0.232304 -0.529938 -0.674709 -0.065671 -0.057608 0.123279 1.421739 0.403333 0.479106 -0.353686 0.772823 -0.419137 0.320214 -0.847228 -1.075003 -0.419055 -0.748374 0.741791 0.412471 0.461967 -0.698878 0.853156 -0.307690 -0.042912 -0.434101 0.286407 -0.104781 0.853156 2.697208
88.000000 0.000000 114.000000 0.390000 23712.819000 27.000000 1.000000 0.179835 0.979196 0.093995 -0.982850 0.173494 0.064713 0.048472 -0.104826 0.993417 0.082607 -0.057213 -0.025393 0.769291 0.276847 0.392334 0.000000 0.000000 0.000000 1.000000 0.232473 0.101446 0.465585 1.000000 0.562778 0.386129 1.000000 0.150875 1.000000 0.232473 0.101446 1.000000 0.123041 0.223695 1.000000 0.044525 0.127767 0.082635 -0.057394 -0.025241 0.769923 0.276548 0.392066 -0.259355 0.557298 -0.297944 0.079561 -0.397704 -0.656162 0.084040 -0.058370 -0.025670 1.224331 0.439766 0.623463 -0.382145 0.860584 -0.478438 0.154253 -0.625161 -1.055585 -0.262159 -0.621227 0.737503 0.378436 0.200515 -0.799148 0.709570 -0.290092 0.061644 -0.447411 0.420712 -0.088343 0.799148 2.501990
89.000000 0.000000 113.000000 0.430000 23109.714000 28.000000 1.000000 0.179670 0.979253 0.093717 -0.982849 0.173719 0.064772 0.048634 -0.104622 0.993317 0.058865 -0.122727 0.063861 0.817477 0.311414 0.201771 0.000000 0.000000 0.000000 1.000000 0.232751 0.101674 0.464321 1.000000 0.562073 0.385513 1.000000 0.150281 1.000000 0.232751 0.101674 1.000000 0.123184 0.223080 1.000000 0.043964 0.127931 0.058772 -0.122735 0.063963 0.817649 0.311657 0.202131 -0.260393 0.554862 -0.294469 0.178137 -0.532102 -0.521328 0.059771 -0.124821 0.065050 1.300226 0.495598 0.321429 -0.347323 0.850933 -0.503611 0.280789 -0.840065 -0.847048 -0.253129 -0.657782 0.808502 0.403848 0.401747 -0.659883 0.664193 -0.397437 -0.148619 -0.411064 0.256035 -0.006410 0.808502 2.480653
90.000000 0.000000 110.000000 0.610000 17147.848000 29.000000 1.000000 0.179230 0.979371 0.093324 -0.982742 0.173767 0.065396 0.048884 -0.104355 0.992961 -0.082502 -0.208811 0.291313 0.618972 0.387006 -0.073586 0.000000 0.000000 0.000000 1.000000 0.231704 0.103188 0.462398 1.000000 0.560443 0.384861 1.000000 0.149056 1.000000 0.231704 0.103188 1.000000 0.122832 0.222381 1.000000 0.043203 0.128195 -0.082799 -0.208882 0.291681 0.619455 0.387043 -0.073766 -0.230356 0.481239 -0.250883 0.393918 -0.490809 -0.192059 -0.084206 -0.212433 0.296639 0.985057 0.615476 -0.117303 -0.249594 0.747999 -0.498405 0.526366 -0.784875 -0.323760 -0.098532 -0.601066 0.705763 0.203229 0.605516 -0.198780 0.509738 -0.294557 -0.506984 -0.411206 -0.004450 0.091328 0.705763 2.073413
91.000000 0.000000 111.000000 0.670000 15691.410000 30.000000 1.000000 0.178839 0.979485 0.092873 -0.982265 0.174127 0.065559 0.049122 -0.103763 0.991890 -0.586035 -0.317631 0.903667 0.648151 0.365095 -0.487554 0.000000 0.000000 0.000000 1.000000 0.231936 0.103799 0.458575 1.000000 0.558451 0.384643 1.000000 0.147961 1.000000 0.231936 0.103799 1.000000 0.122804 0.221594 1.000000 0.041957 0.128325 -0.586106 -0.317442 0.903548 0.647823 0.365243 -0.487868 -0.206942 0.206702 0.000240 0.961951 -0.669792 0.068485 -0.596070 -0.322839 0.918908 1.030168 0.580809 -0.775808 -0.143835 0.393125 -0.249291 1.136297 -1.109051 0.112100 -0.294996 -0.769225 0.546132 0.071904 1.355774 0.514645 0.722329 -0.118799 -1.060778 -0.427333 -0.586549 0.046895 1.355774 2.820862
92.000000 0.000000 111.000000 0.380000 16859.326000 31.000000 1.000000 0.179557 0.979253 0.093930 -0.982984 0.173082 0.066940 0.049975 -0.105058 0.993807 0.313885 -0.034298 -0.279587 0.390747 0.278373 0.361139 0.000000 0.000000 0.000000 1.000000 0.228221 0.106191 0.468108 1.000000 0.566327 0.384426 1.000000 0.146976 1.000000 0.228221 0.106191 1.000000 0.121695 0.224109 1.000000 0.042186 0.130623 0.313760 -0.034113 -0.279647 0.390817 0.278307 0.361424 -0.184031 0.550025 -0.365994 -0.178983 -0.136579 -0.404801 0.319094 -0.034693 -0.284401 0.621477 0.442564 0.574737 -0.279122 0.806886 -0.527763 -0.129483 -0.191496 -0.668717 0.071392 -0.289960 0.578825 0.217474 -0.227294 -0.734728 0.241976 -0.265457 0.155903 -0.313368 0.517255 0.047984 0.734728 1.735834
93.000000 0.000000 105.000000 1.260000 14879.373000 32.000000 1.000000 0.178147 0.979728 0.091631 -0.982370 0.176346 0.063132 0.049561 -0.102811 0.989320 -1.354419 -1.418872 2.773290 2.197804 0.619774 -1.771262 0.000000 0.000000 0.000000 1.000000 0.239788 0.099210 0.447792 1.000000 0.552638 0.384771 1.000000 0.145769 1.000000 0.239788 0.099210 1.000000 0.124011 0.218338 1.000000 0.039820 0.128465 -1.354358 -1.419247 2.773605 2.197823 0.620017 -1.771906 -0.977994 0.424323 0.553671 2.645671 -2.502320 0.377485 -1.377382 -1.443374 2.820757 3.494978 0.985950 -2.817684 -0.748874 0.711639 0.037235 3.111496 -4.074372 0.527891 -0.997365 -1.802390 1.856272 1.051247 4.291016 1.437379 1.990387 -0.863250 -3.293652 -0.993022 -2.488626 -0.187997 4.291016 9.015803
94.000000 0.000000 104.000000 0.460000 15901.405000 33.000000 1.000000 0.179046 0.979316 0.094251 -0.982922 0.172849 0.066705 0.049974 -0.105267 0.993714 0.251130 0.020314 -0.271444 0.514636 0.241751 0.213584 0.000000 0.000000 0.000000 1.000000 0.228143 0.105595 0.468411 1.000000 0.564733 0.384825 1.000000 0.146127 1.000000 0.228143 0.105595 1.000000 0.120282 0.224505 1.000000 0.042556 0.130646 0.250957 0.020637 -0.271594 0.514417 0.241705 0.213874 -0.094015 0.461871 -0.367856 -0.124997 -0.311472 -0.382091 0.255224 0.020988 -0.276212 0.818026 0.384359 0.340103 -0.165127 0.687899 -0.522773 -0.061724 -0.475236 -0.622064 -0.081418 -0.395245 0.586498 0.272670 -0.021846 -0.689762 0.255847 -0.412069 0.103264 -0.174429 0.417091 0.139399 0.689762 1.735083
95.000000 0.000000 104.000000 0.700000 14059.700000 34.000000 1.000000 0.178669 0.979473 0.093327 -0.982268 0.173547 0.065943 0.049703 -0.104370 0.992087 -0.514662 -0.172320 0.686981 0.758937 0.379639 -0.318595 0.000000 0.000000 0.000000 1.000000 0.230290 0.104459 0.461319 1.000000 0.560368 0.384977 1.000000 0.146265 1.000000 0.230290 0.104459 1.000000 0.121480 0.222550 1.000000 0.041776 0.129690 -0.514540 -0.172491 0.687031 0.758867 0.379783 -0.318654 -0.136498 0.272924 -0.136426 0.820876 -0.675304 -0.138471 -0.523287 -0.175423 0.698710 1.206750 0.603931 -0.506723 -0.113102 0.508077 -0.394975 0.988944 -1.113770 -0.205385 -0.388115 -0.881223 0.597193 0.104085 1.198401 0.213093 0.784663 -0.200644 -0.810286 -0.396549 -0.317178 0.096559 1.198401 2.724416
96.000000 0.000000 94.000000 0.770000 8193.184000 35.000000 1.000000 0.179494 0.979219 0.094402 -0.982844 0.172325 0.067363 0.050595 -0.105614 0.993644 0.210114 0.101329 -0.311444 0.495538 0.268016 0.655727 0.000000 0.000000 0.000000 1.000000 0.226115 0.106976 0.470574 1.000000 0.568709 0.385169 1.000000 0.145343 1.000000 0.226115 0.106976 1.000000 0.120483 0.225248 1.000000 0.041851 0.132084 0.210232 0.101575 -0.311807 0.495472 0.268249 0.655867 -0.170184 0.571574 -0.401390 -0.182141 -0.048945 -0.727683 0.213806 0.103302 -0.317108 0.787899 0.426569 1.042959 -0.330222 0.883343 -0.553122 -0.152044 -0.061723 -1.159488 -0.102399 -0.450691 0.540918 0.192625 -0.320873 -0.964189 0.530700 -0.112617 0.423272 -0.428301 0.771564 -0.080009 0.964189 2.430420
97.000000 0.000000 104.000000 0.760000 16405.411000 36.000000 1.000000 -0.980203 0.178021 0.086665 0.183911 0.981247 0.052730 -0.076813 0.068271 -0.994923 -0.018810 0.255359 -0.236549 -0.200821 -0.610279 0.509875 0.000000 0.000000 0.000000 1.000000 0.190580 0.164444 0.357058 1.000000 0.601906 0.280123 1.000000 0.107546 1.000000 0.190580 0.164444 1.000000 0.196032 0.145873 1.000000 0.054101 0.101721 -0.018931 0.255417 -0.236486 -0.200802 -0.610442 0.509374 -0.280808 0.554704 -0.273896 -0.171705 -0.216754 -0.652636 -0.019253 0.259759 -0.240506 -0.319316 -0.970725 0.810006 -0.440277 0.838766 -0.398489 -0.141096 -0.319888 -1.054942 -0.379843 0.412751 -0.640563 0.152030 -0.551370 -0.290650 0.109997 0.370718 0.931213 0.269845 0.138619 -0.522748 0.931213 2.299928
98.000000 0.000000 105.000000 0.920000 16418.901000 37.000000 1.000000 0.183808 0.981569 0.052308 -0.980437 0.178102 0.086712 0.076836 -0.068000 0.994968 0.164510 -0.083624 -0.080886 0.583808 0.289855 0.428951 0.000000 0.000000 0.000000 1.000000 0.190383 0.164707 0.355328 1.000000 0.600654 0.279617 1.000000 0.107389 1.000000 0.190383 0.164707 1.000000 0.196544 0.144944 1.000000 0.054458 0.101162 0.164515 -0.083644 -0.080871 0.583634 0.289776 0.428641 -0.308822 0.600315 -0.291493 -0.020979 -0.215692 -0.557953 0.167312 -0.085066 -0.082246 0.928094 0.460802 0.681625 -0.447918 0.914127 -0.466209 0.031906 -0.327720 -0.907791 -0.087739 -0.463982 0.670047 0.293804 -0.001261 -0.759047 0.555284 -0.202502 0.089000 -0.467545 0.465243 -0.091302 0.759047 2.162851
99.000000 0.000000 101.000000 1.080000 15811.220000 38.000000 1.000000 0.183708 0.981605 0.051985 -0.980233 0.177724 0.087051 0.077084 -0.067756 0.995140 0.143264 0.132445 -0.275709 0.486743 0.308957 0.548773 0.000000 0.000000 0.000000 1.000000 0.188919 0.165498 0.354983 1.000000 0.600961 0.278654 1.000000 0.106894 1.000000 0.188919 0.165498 1.000000 0.196910 0.144341 1.000000 0.055207 0.100700 0.143278 0.132468 -0.275747 0.486696 0.308440 0.548555 -0.130866 0.559404 -0.428539 -0.130410 -0.068266 -0.641450 0.145714 0.134720 -0.280435 0.773943 0.490482 0.872312 -0.282851 0.890573 -0.607722 -0.093762 -0.093364 -1.010331 -0.111234 -0.511711 0.520688 0.120211 -0.214133 -0.846055 0.498106 -0.133816 0.325368 -0.386872 0.725844 0.013605 0.846055 2.231256
100.000000 0.000000 97.000000 1.410000 13602.544000 39.000000 1.000000 0.183506 0.981652 0.051816 -0.980345 0.177991 0.086763 0.077279 -0.067452 0.995077 0.164272 0.022149 -0.186420 0.715057 0.236845 0.339115 0.000000 0.000000 0.000000 1.000000 0.189814 0.164980 0.353808 1.000000 0.600158 0.277980 1.000000 0.106271 1.000000 0.189814 0.164980 1.000000 0.196884 0.143799 1.000000 0.055939 0.100035 0.163981 0.022223 -0.186204 0.714431 0.236480 0.339370 -0.197438 0.521059 -0.323621 -0.056786 -0.377095 -0.599584 0.166768 0.022601 -0.189370 1.136088 0.376051 0.539666 -0.328710 0.806959 -0.478250 0.003978 -0.583441 -0.959710 -0.251428 -0.558472 0.676184 0.369140 0.098096 -0.829516 0.538731 -0.388881 0.153332 -0.287303 0.460376 0.019741 0.829516 2.294847
101.000000 0.000000 99.000000 0.540000 14367.379000 40.000000 1.000000 0.184539 0.981853 0.043709 -0.980215 0.179600 0.091187 0.082864 -0.060848 0.995642 0.543853 -0.152003 -0.391850 0.680414 0.466333 0.281306 0.000000 0.000000 0.000000 1.000000 0.182463 0.177765 0.334978 1.000000 0.609656 0.259698 1.000000 0.099316 1.000000 0.182463 0.177765 1.000000 0.212014 0.128649 1.000000 0.074905 0.085860 0.543361 -0.151701 -0.391660 0.679868 0.466328 0.280947 -0.327133 0.864653 -0.537520 -0.264726 -0.420532 -0.419200 0.552598 -0.154280 -0.398318 1.081127 0.741554 0.446761 -0.445808 1.267311 -0.821503 -0.169936 -0.615834 -0.717128 0.149952 -0.455525 1.032688 0.427212 -0.129232 -1.011968 0.235548 -0.647189 -0.020720 -0.385500 0.584756 0.219977 1.032688 2.546907
102.000000 0.000000 103.000000 0.520000 21473.834000 41.000000 1.000000 0.184862 0.981786 0.043854 -0.980090 0.180018 0.091005 0.082584 -0.060747 0.995869 0.587483 -0.043685 -0.543798 0.621645 0.350396 0.225662 0.000000 0.000000 0.000000 1.000000 0.183711 0.177328 0.335392 1.000000 0.610322 0.259779 1.000000 0.100370 1.000000 0.183711 0.177328 1.000000 0.212503 0.128983 1.000000 0.074591 0.085664 0.587203 -0.043730 -0.543473 0.621323 0.350024 0.225807 -0.196991 0.703925 -0.506934 -0.389397 -0.427604 -0.387898 0.597185 -0.044473 -0.552712 0.988028 0.556609 0.359078 -0.298548 1.024682 -0.726135 -0.314609 -0.621222 -0.654916 0.085830 -0.368639 0.892551 0.438082 -0.212676 -1.019397 0.080510 -0.726211 0.126846 -0.166340 0.581315 0.288129 1.019397 2.289322
103.000000 0.000000 108.000000 0.500000 23440.382000 42.000000 1.000000 0.184893 0.981780 0.043851 -0.980320 0.180132 0.090733 0.082384 -0.060708 0.996189 0.760798 -0.091546 -0.669252 0.653212 0.341960 0.213070 0.000000 0.000000 0.000000 1.000000 0.184427 0.176701 0.335537 1.000000 0.609781 0.259528 1.000000 0.100835 1.000000 0.184427 0.176701 1.000000 0.212641 0.128832 1.000000 0.074234 0.085626 0.760515 -0.091372 -0.669143 0.653031 0.342194 0.212874 -0.238057 0.759596 -0.521539 -0.525636 -0.490177 -0.369738 0.773444 -0.092926 -0.680518 1.038449 0.544158 0.338512 -0.340571 1.079071 -0.738501 -0.450975 -0.703867 -0.642155 0.151900 -0.292403 0.999790 0.555488 -0.307830 -1.155720 -0.031435 -0.879326 0.155930 -0.120465 0.600232 0.323838 1.155720 2.464175
104.000000 0.000000 108.000000 0.550000 22955.705000 43.000000 1.000000 0.184836 0.981806 0.043499 -0.980215 0.179926 0.090483 0.082207 -0.060284 0.995937 0.610059 -0.079728 -0.530331 0.654073 0.334794 0.295485 0.000000 0.000000 0.000000 1.000000 0.184180 0.176320 0.333806 1.000000 0.608445 0.259083 1.000000 0.101192 1.000000 0.184180 0.176320 1.000000 0.213315 0.128018 1.000000 0.074411 0.084899 0.610022 -0.080031 -0.529990 0.653968 0.334682 0.295368 -0.261323 0.735294 -0.473971 -0.404605 -0.417584 -0.449175 0.620392 -0.081392 -0.539000 1.039939 0.532211 0.469693 -0.381380 1.064928 -0.683548 -0.336460 -0.603541 -0.758619 0.079223 -0.355325 0.928330 0.493781 -0.240518 -1.089625 0.142985 -0.706122 0.161295 -0.222208 0.595843 0.212340 1.089625 2.403965
105.000000 0.000000 105.000000 0.490000 21055.857000 44.000000 1.000000 0.185050 0.981785 0.043072 -0.980049 0.179750 0.090468 0.082256 -0.059985 0.995546 0.411225 -0.083611 -0.327614 0.665190 0.395666 0.492694 0.000000 0.000000 0.000000 1.000000 0.183612 0.176505 0.332314 1.000000 0.608766 0.258838 1.000000 0.101475 1.000000 0.183612 0.176505 1.000000 0.214534 0.127250 1.000000 0.074897 0.084346 0.410789 -0.083796 -0.326994 0.664769 0.395444 0.492827 -0.341511 0.804414 -0.462903 -0.227804 -0.270974 -0.606797 0.417773 -0.085220 -0.332553 1.057115 0.628836 0.783693 -0.503710 1.203645 -0.699935 -0.163815 -0.390537 -0.998871 0.030502 -0.482941 0.893632 0.380190 -0.194695 -1.057826 0.445188 -0.417943 0.164193 -0.475689 0.677635 0.037753 1.057826 2.611491
106.000000 0.000000 91.000000 1.530000 12651.611000 45.000000 1.000000 0.185542 0.981670 0.043570 -0.981342 0.180973 0.089186 0.082658 -0.061053 0.998150 1.758785 -0.101047 -1.657738 1.558539 0.551397 0.269905 0.000000 0.000000 0.000000 1.000000 0.188964 0.173255 0.337698 1.000000 0.612784 0.257663 1.000000 0.101448 1.000000 0.188964 0.173255 1.000000 0.214762 0.127553 1.000000 0.074296 0.086089 1.758013 -0.101301 -1.656712 1.558236 0.551053 0.270002 -0.380626 1.443682 -1.063056 -1.292115 -1.326173 -0.787119 1.787899 -0.103023 -1.684876 2.477906 0.876284 0.429358 -0.577672 2.017422 -1.439750 -1.134733 -1.932315 -1.362166 0.118106 -0.597377 2.141308 1.425825 -0.581438 -2.604640 -0.230869 -2.254071 0.463332 0.112762 1.178815 0.828246 2.604640 5.508696
107.000000 0.000000 107.000000 0.830000 16287.741000 46.000000 1.000000 -0.047906 0.084658 -0.995258 0.190745 0.979543 0.074224 0.980678 -0.185493 -0.061889 0.227339 -0.470521 0.243182 -0.383485 0.544028 0.041483 0.000000 0.000000 0.000000 1.000000 0.255557 0.102555 0.400633 1.000000 0.572281 0.345549 1.000000 0.174579 1.000000 0.255557 0.102555 1.000000 0.181418 0.184838 1.000000 0.016970 0.118507 0.227337 -0.470682 0.243345 -0.383448 0.544138 0.041379 0.024072 -0.029144 0.005072 0.301648 -0.155986 -0.703563 0.231202 -0.478684 0.247482 -0.609759 0.865289 0.065801 -0.086433 0.077618 0.008816 0.297109 -0.292180 -1.056575 0.891995 0.185490 0.394129 -0.312376 -0.269149 0.228716 -0.215423 0.282442 -0.622846 -0.676572 0.083660 0.029934 0.891995 1.972394
108.000000 0.000000 107.000000 1.230000 14501.322000 47.000000 1.000000 0.190194 0.978887 0.074874 -0.979394 0.185520 0.060132 0.047106 -0.083857 0.993765 -0.990508 0.389137 0.601371 0.971380 -0.641053 0.083435 0.000000 0.000000 0.000000 1.000000 0.258670 0.098642 0.398506 1.000000 0.568540 0.346407 1.000000 0.175753 1.000000 0.258670 0.098642 1.000000 0.180145 0.185701 1.000000 0.017404 0.116762 -0.991169 0.389480 0.601689 0.972131 -0.641835 0.083700 0.207478 -0.778760 0.571282 0.615091 -0.659527 -0.900453 -1.008019 0.396101 0.611918 1.545883 -1.020646 0.133099 0.134970 -0.998849 0.863879 0.559473 -1.139597 -1.315339 -1.621011 -0.787657 -0.358802 0.474552 1.238103 -0.024105 1.346778 0.084570 0.382908 0.274233 -0.450446 -0.559122 1.621011 3.559316
109.000000 0.000000 106.000000 0.650000 17857.172000 48.000000 1.000000 0.189667 0.979056 0.074002 -0.979492 0.184139 0.059536 0.045875 -0.084328 0.992837 -1.370415 0.204389 1.166026 0.679974 0.195906 0.546249 0.000000 0.000000 0.000000 1.000000 0.256166 0.097866 0.394985 1.000000 0.562184 0.348231 1.000000 0.177622 1.000000 0.256166 0.097866 1.000000 0.180983 0.183609 1.000000 0.020362 0.114701 -1.371597 0.204487 1.167110 0.680873 0.196200 0.546550 -0.109831 -0.002158 0.111989 1.219863 -0.016947 -0.970960 -1.394914 0.207964 1.186950 1.082725 0.311998 0.869124 -0.260894 0.272181 -0.011287 1.268003 -0.145212 -1.422638 -0.969020 -1.223765 -0.084979 -0.339724 1.141244 0.257203 1.850881 0.966840 -0.172224 -0.881861 0.082521 -0.627116 1.850881 3.342434
110.000000 0.000000 113.000000 0.510000 20848.815000 49.000000 1.000000 0.189581 0.979029 0.074581 -0.980520 0.184369 0.059595 0.045818 -0.085213 0.994289 -0.511226 0.008005 0.503220 0.691920 0.293470 0.470849 0.000000 0.000000 0.000000 1.000000 0.256967 0.097600 0.399223 1.000000 0.562854 0.348161 1.000000 0.177403 1.000000 0.256967 0.097600 1.000000 0.179603 0.184502 1.000000 0.021669 0.114889 -0.511893 0.007904 0.503990 0.692488 0.293601 0.471249 -0.241238 0.388861 -0.147622 0.563291 -0.187277 -0.760196 -0.520596 0.008038 0.512558 1.101194 0.466884 0.749380 -0.378138 0.709946 -0.331807 0.626235 -0.340610 -1.171470 -0.474770 -0.855979 0.424352 0.043142 0.565410 -0.333711 1.177277 0.278156 -0.090641 -0.702507 0.290569 -0.321298 1.177277 2.603313
111.000000 0.000000 114.000000 0.310000 23567.429000 50.000000 1.000000 0.189652 0.978988 0.074926 -0.980939 0.184415 0.059605 0.045882 -0.085657 0.994954 -0.136667 -0.037754 0.174421 0.749627 0.304564 0.515448 0.000000 0.000000 0.000000 1.000000 0.257268 0.097411 0.401565 1.000000 0.563959 0.348209 1.000000 0.177275 1.000000 0.257268 0.097411 1.000000 0.179044 0.185114 1.000000 0.022142 0.115182 -0.136595 -0.038012 0.174608 0.750365 0.304783 0.516062 -0.294385 0.552917 -0.258532 0.240851 -0.264271 -0.768179 -0.138918 -0.038659 0.177576 1.193231 0.484667 0.820642 -0.444587 0.896910 -0.452323 0.300012 -0.430909 -1.216255 -0.330201 -0.725929 0.644068 0.248339 0.281317 -0.692952 0.951368 -0.022901 0.048884 -0.621168 0.444613 -0.225439 0.951368 2.659878
112.000000 0.000000 99.000000 4.140000 11683.868000 51.000000 1.000000 0.191364 0.977965 0.083456 -0.979746 0.189390 0.047376 0.046260 -0.086944 0.998932 0.905197 1.975336 -2.880532 7.180362 -3.578776 -0.894014 0.000000 0.000000 0.000000 1.000000 0.291080 0.066854 0.422637 1.000000 0.580919 0.351700 1.000000 0.179161 1.000000 0.291080 0.066854 1.000000 0.171908 0.198244 1.000000 0.022405 0.116753 0.905571 1.976576 -2.882146 7.185378 -3.581441 -0.894822 1.551839 -2.328926 0.777087 -2.034398 -6.809248 -4.129323 0.920965 2.010178 -2.931143 11.426189 -5.695207 -1.422947 1.363494 -3.529643 2.166149 -2.208513 -10.790586 -6.398369 -7.434450 -2.784333 1.894994 6.545111 3.673021 -5.656423 2.511190 -6.818254 3.761429 4.923260 -0.888688 0.273143 7.434450 22.699663
113.000000 0.000000 110.000000 0.460000 23308.801000 52.000000 1.000000 0.185956 0.979293 0.080032 -0.982303 0.181409 0.050643 0.036264 -0.089043 0.995355 0.061478 -0.134632 0.073153 0.683387 0.398325 0.479568 0.000000 0.000000 0.000000 1.000000 0.266232 0.076247 0.406709 1.000000 0.530413 0.362782 1.000000 0.192824 1.000000 0.266232 0.076247 1.000000 0.166993 0.191222 1.000000 0.044549 0.098589 0.061748 -0.134831 0.073083 0.683720 0.398380 0.480112 -0.345674 0.692335 -0.346661 0.130752 -0.253744 -0.655267 0.062797 -0.137123 0.074325 1.087251 0.633504 0.763474 -0.476421 1.066779 -0.590358 0.203389 -0.395212 -1.061203 -0.103624 -0.620878 0.784112 0.266859 0.136887 -0.750849 0.760262 -0.127475 -0.033263 -0.656637 0.483991 -0.139384 0.784112 2.557618
114.000000 0.000000 115.000000 0.450000 24354.021000 53.000000 1.000000 0.185999 0.979265 0.080276 -0.982261 0.181499 0.050544 0.036138 -0.089252 0.995327 0.046918 -0.119524 0.072606 0.693793 0.389517 0.453089 0.000000 0.000000 0.000000 1.000000 0.266685 0.075931 0.407379 1.000000 0.530574 0.363483 1.000000 0.193164 1.000000 0.266685 0.075931 1.000000 0.166696 0.191728 1.000000 0.045030 0.098463 0.047034 -0.119401 0.072367 0.694065 0.390079 0.453628 -0.322442 0.670144 -0.347702 0.139484 -0.275020 -0.646876 0.047834 -0.121431 0.073597 1.103702 0.620304 0.721359 -0.447720 1.036793 -0.589074 0.213742 -0.430572 -1.045104 -0.128245 -0.634721 0.772925 0.266449 0.166609 -0.734561 0.755596 -0.145573 -0.038364 -0.627351 0.468112 -0.120876 0.772925 2.530526
115.000000 0.000000 118.000000 0.370000 26352.931000 54.000000 1.000000 0.185996 0.979237 0.080624 -0.982397 0.181574 0.050533 0.035993 -0.089564 0.995513 0.165057 -0.147879 -0.017177 0.657246 0.373735 0.421906 0.000000 0.000000 0.000000 1.000000 0.267019 0.075746 0.408694 1.000000 0.530692 0.364140 1.000000 0.193435 1.000000 0.267019 0.075746 1.000000 0.166071 0.192422 1.000000 0.045703 0.098325 0.165107 -0.147879 -0.017227 0.657381 0.374214 0.422108 -0.331988 0.685500 -0.353512 0.040492 -0.281954 -0.584283 0.167914 -0.150393 -0.017520 1.045367 0.595075 0.671237 -0.449413 1.034866 -0.585454 0.110967 -0.431731 -0.957330 -0.053883 -0.539759 0.799655 0.313779 0.077035 -0.776503 0.625097 -0.228441 -0.023152 -0.571214 0.462724 -0.085338 0.799655 2.401889
116.000000 0.000000 120.000000 0.370000 25146.621000 55.000000 1.000000 0.186056 0.979206 0.080863 -0.982454 0.181673 0.050603 0.035931 -0.089786 0.995734 0.269987 -0.120303 -0.149683 0.611439 0.357577 0.401682 0.000000 0.000000 0.000000 1.000000 0.267246 0.075773 0.409844 1.000000 0.531191 0.364495 1.000000 0.193650 1.000000 0.267246 0.075773 1.000000 0.165754 0.192935 1.000000 0.046092 0.098316 0.270017 -0.120362 -0.149655 0.611807 0.358079 0.402254 -0.291778 0.681504 -0.389726 -0.076151 -0.270970 -0.537843 0.274607 -0.122408 -0.152199 0.972896 0.569417 0.639664 -0.402654 1.014037 -0.611383 -0.011406 -0.406896 -0.888213 -0.002639 -0.467566 0.791728 0.326800 -0.038202 -0.832568 0.484082 -0.310284 0.040840 -0.481444 0.505767 -0.016516 0.832568 2.282572
117.000000 0.000000 116.000000 0.330000 24917.602000 56.000000 1.000000 0.186199 0.979169 0.080978 -0.982642 0.181728 0.050666 0.035803 -0.090064 0.996052 0.447943 -0.139644 -0.308298 0.539977 0.431134 0.460401 0.000000 0.000000 0.000000 1.000000 0.267361 0.075831 0.410978 1.000000 0.531709 0.364795 1.000000 0.194143 1.000000 0.267361 0.075831 1.000000 0.165801 0.193184 1.000000 0.046676 0.098212 0.448462 -0.140219 -0.308243 0.540220 0.431394 0.460776 -0.320170 0.813524 -0.493354 -0.222895 -0.196727 -0.505867 0.456085 -0.142603 -0.313483 0.859057 0.686002 0.732726 -0.440228 1.187956 -0.747728 -0.155830 -0.274569 -0.852664 0.173764 -0.386355 0.875181 0.315063 -0.262600 -0.964018 0.335668 -0.365750 0.088836 -0.509432 0.648955 0.050687 0.964018 2.392975
118.000000 0.000000 117.000000 0.360000 21985.909000 57.000000 1.000000 0.186204 0.979186 0.080764 -0.982547 0.181943 0.050687 0.035908 -0.089826 0.995958 0.393348 -0.141627 -0.251720 0.569688 0.415858 0.351858 0.000000 0.000000 0.000000 1.000000 0.267717 0.075953 0.410060 1.000000 0.531644 0.364321 1.000000 0.193951 1.000000 0.267717 0.075953 1.000000 0.166191 0.192761 1.000000 0.046156 0.098299 0.393414 -0.141629 -0.251785 0.570152 0.416164 0.352327 -0.286379 0.758476 -0.472097 -0.156525 -0.274329 -0.449078 0.400102 -0.144037 -0.256065 0.906656 0.661784 0.560271 -0.384695 1.110334 -0.725639 -0.079791 -0.402120 -0.758501 0.122175 -0.418169 0.862456 0.322112 -0.126468 -0.866749 0.330991 -0.409290 0.004293 -0.453166 0.544637 0.087178 0.866749 2.256380
119.000000 0.000000 116.000000 0.360000 21147.364000 58.000000 1.000000 0.186362 0.979158 0.080738 -0.982477 0.182041 0.050690 0.035977 -0.089665 0.996014 0.390584 -0.093067 -0.297517 0.589454 0.337331 0.377767 0.000000 0.000000 0.000000 1.000000 0.267927 0.075958 0.410041 1.000000 0.532357 0.364008 1.000000 0.194090 1.000000 0.267927 0.075958 1.000000 0.166557 0.192754 1.000000 0.045792 0.098381 0.391070 -0.093220 -0.297850 0.589567 0.337621 0.378466 -0.251899 0.682512 -0.430613 -0.206392 -0.283579 -0.499618 0.397719 -0.094805 -0.302914 0.937530 0.536885 0.601837 -0.356552 0.998257 -0.641705 -0.146947 -0.418267 -0.833440 0.037509 -0.400855 0.802999 0.364635 -0.148986 -0.914476 0.342412 -0.423078 0.111477 -0.379921 0.549841 0.058444 0.914476 2.230837
120.000000 0.000000 114.000000 0.450000 17625.701000 59.000000 1.000000 0.186416 0.979153 0.080671 -0.982569 0.182131 0.050687 0.036004 -0.089706 0.996198 0.488609 -0.101938 -0.386671 0.608368 0.379742 0.371774 0.000000 0.000000 0.000000 1.000000 0.268130 0.075957 0.410232 1.000000 0.532612 0.363782 1.000000 0.194111 1.000000 0.268130 0.075957 1.000000 0.166775 0.192587 1.000000 0.045790 0.098447 0.489230 -0.101759 -0.387471 0.608757 0.379732 0.371772 -0.255271 0.756849 -0.501578 -0.275869 -0.310810 -0.485206 0.497547 -0.103489 -0.394058 0.968045 0.603850 0.591192 -0.359075 1.097132 -0.738057 -0.207838 -0.453746 -0.818695 0.096690 -0.396352 0.887095 0.394054 -0.210147 -1.000552 0.272560 -0.517846 0.113457 -0.369249 0.606498 0.123792 1.000552 2.360948
121.000000 0.000000 106.000000 0.580000 13953.019000 60.000000 1.000000 0.186646 0.979084 0.080976 -0.982602 0.182323 0.050503 0.035898 -0.089776 0.996475 0.600520 -0.047851 -0.552669 0.656052 0.253215 0.399039 0.000000 0.000000 0.000000 1.000000 0.268986 0.075403 0.411422 1.000000 0.533597 0.363992 1.000000 0.194741 1.000000 0.268986 0.075403 1.000000 0.166769 0.193191 1.000000 0.046035 0.098314 0.600984 -0.047768 -0.553216 0.656406 0.253674 0.399650 -0.214730 0.678053 -0.463323 -0.447049 -0.363388 -0.545457 0.611201 -0.048580 -0.562620 1.043816 0.403392 0.635523 -0.326559 0.960629 -0.634070 -0.406013 -0.530151 -0.916923 0.007902 -0.321466 0.860175 0.530807 -0.312525 -1.164798 0.206377 -0.645895 0.304623 -0.214279 0.633991 0.115089 1.164798 2.450960
122.000000 0.000000 118.000000 0.530000 36764.975000 0.000000 2.000000 0.690623 -0.258202 -0.675553 -0.195240 0.834691 -0.518822 0.699349 0.489366 0.526060 1.546596 -0.449743 -1.096853 0.497609 -0.621568 -0.068125 0.000000 0.000000 0.000000 0.006880 1.000000 0.478766 0.146255 0.875227 1.000000 1.000000 0.645395 0.261844 0.006880 1.000000 0.478766 0.766941 0.722163 1.000000 0.170618 0.011817 1.000000 1.546639 -0.449523 -1.097116 0.497859 -0.621676 -0.068170 -0.529601 0.825474 -0.295873 0.244209 -0.702241 -1.208475 1.572932 -0.457165 -1.115767 0.791695 -0.988589 -0.108404 -0.948320 1.299646 -0.351326 0.157042 -0.816436 -1.238033 0.101986 0.909165 0.748402 1.555582 -0.730193 -1.376609 -0.818704 -1.465120 0.628207 0.716718 -0.178972 -0.090461 1.555582 3.277132
123.000000 0.000000 108.000000 1.580000 16028.492000 1.000000 2.000000 -0.195027 0.833539 -0.516892 -0.697667 -0.488630 -0.526389 -0.689315 0.256940 0.676333 0.196586 -1.091368 0.894781 0.324537 0.492826 -0.426707 0.000000 0.000000 0.000000 0.007448 1.000000 0.481956 0.147182 0.862360 1.000000 1.000000 0.646350 0.262999 0.007448 1.000000 0.481956 0.775516 0.728781 1.000000 0.170458 0.013262 1.000000 0.196635 -1.093390 0.896755 0.325294 0.493698 -0.427576 0.232126 -0.089998 -0.142128 -0.533759 -0.312528 -1.062017 0.199978 -1.111978 0.912000 0.517282 0.785079 -0.679931 0.424915 -0.041962 -0.382953 -0.891651 -0.353426 -1.147134 0.644931 0.003917 1.067290 0.426276 0.779442 0.357083 0.224280 -0.198079 -1.424373 -0.869212 -0.783359 -0.228198 1.424373 2.683477
124.000000 0.000000 116.000000 0.320000 30126.304000 2.000000 2.000000 -0.195239 0.833296 -0.517203 -0.697375 -0.488243 -0.525218 -0.689771 0.256872 0.675025 -0.334404 -0.617161 0.951565 -0.539327 0.202628 -0.473391 0.000000 0.000000 0.000000 0.007374 1.000000 0.481134 0.148645 0.868526 1.000000 1.000000 0.646439 0.263102 0.007374 1.000000 0.481134 0.770459 0.728756 1.000000 0.169891 0.013801 1.000000 -0.335009 -0.618653 0.953662 -0.540145 0.203206 -0.474042 -0.451453 0.806723 -0.355270 0.035604 -0.430781 -0.763366 -0.340704 -0.629170 0.969874 -0.858938 0.323139 -0.753822 -0.799369 1.262761 -0.463391 -0.097493 -0.495164 -0.811110 0.600347 0.336505 -0.100973 -0.364815 0.492128 1.193448 -0.123365 0.577955 -1.092474 -0.476981 -0.828633 -0.213140 1.193448 2.531839
125.000000 0.000000 114.000000 0.360000 24760.995000 3.000000 2.000000 -0.194970 0.833381 -0.517167 -0.697275 -0.488268 -0.525354 -0.689899 0.256895 0.674878 -0.331757 -0.628358 0.960115 -0.533281 0.212079 -0.364395 0.000000 0.000000 0.000000 0.007063 1.000000 0.480635 0.148832 0.868631 1.000000 1.000000 0.645192 0.263868 0.007063 1.000000 0.480635 0.770703 0.727994 1.000000 0.169442 0.014052 1.000000 -0.331985 -0.629637 0.961622 -0.534152 0.212744 -0.365102 -0.414666 0.755127 -0.340461 0.098497 -0.355902 -0.783682 -0.337629 -0.640340 0.977970 -0.849408 0.338306 -0.580585 -0.740219 1.182014 -0.441795 0.002488 -0.374927 -0.838179 0.608464 0.332238 -0.085075 -0.361301 0.427344 1.120883 -0.046701 0.646838 -1.035808 -0.561762 -0.759582 -0.285537 1.120883 2.395778
126.000000 0.000000 108.000000 0.670000 18052.748000 4.000000 2.000000 -0.194478 0.833483 -0.517189 -0.697217 -0.488141 -0.525716 -0.690051 0.256843 0.674887 -0.269788 -0.654237 0.924024 -0.470367 0.385222 -0.315284 0.000000 0.000000 0.000000 0.006707 1.000000 0.479839 0.148807 0.867093 1.000000 1.000000 0.642983 0.264888 0.006707 1.000000 0.479839 0.771377 0.726210 1.000000 0.168819 0.014683 1.000000 -0.270350 -0.655394 0.925744 -0.471342 0.386280 -0.315458 -0.321233 0.722570 -0.401337 0.000324 -0.216470 -0.843008 -0.274946 -0.666536 0.941482 -0.749529 0.614262 -0.501641 -0.576099 1.142685 -0.566586 -0.137951 -0.163633 -0.932071 0.716631 0.215089 0.104644 -0.396899 0.395405 1.007392 -0.014183 0.597804 -1.112036 -0.702448 -0.610493 -0.200905 1.112036 2.383620
127.000000 0.000000 106.000000 0.470000 10772.062000 5.000000 2.000000 -0.193790 0.833505 -0.517412 -0.696954 -0.487289 -0.527591 -0.690581 0.256717 0.674157 -0.192499 -0.965823 1.158322 -0.264588 0.507975 -0.940253 0.000000 0.000000 0.000000 0.004058 1.000000 0.474044 0.149691 0.860503 1.000000 1.000000 0.639298 0.266392 0.004058 1.000000 0.474044 0.773704 0.725543 1.000000 0.167451 0.016508 1.000000 -0.192991 -0.967939 1.160930 -0.264839 0.509039 -0.942217 -0.293336 0.801719 -0.508383 -0.510843 -0.664602 -1.087063 -0.196272 -0.984394 1.180666 -0.421147 0.809474 -1.498313 -0.511744 1.301972 -0.790227 -0.955820 -0.839848 -1.169892 0.824148 0.163216 0.480283 -0.180650 1.001884 1.345749 -0.221484 0.122381 -1.826032 -0.602665 -1.165099 0.058268 1.826032 3.582591
128.000000 0.000000 105.000000 0.350000 11032.750000 6.000000 2.000000 -0.193640 0.833595 -0.517323 -0.696067 -0.487489 -0.528106 -0.691715 0.256461 0.673625 -0.155634 -0.680796 0.836429 -0.356330 0.377186 -0.807266 0.000000 0.000000 0.000000 0.002531 1.000000 0.473122 0.153206 0.859245 1.000000 1.000000 0.636829 0.268095 0.002531 1.000000 0.473122 0.774579 0.729798 1.000000 0.165336 0.017782 1.000000 -0.155829 -0.682046 0.837875 -0.356854 0.378031 -0.809120 -0.393421 0.793357 -0.399936 -0.399973 -0.530824 -0.779008 -0.158478 -0.693641 0.852119 -0.567469 0.601145 -1.286662 -0.663591 1.278113 -0.614522 -0.742540 -0.686313 -0.840775 0.695564 0.204731 0.232227 -0.258605 0.706184 1.169520 -0.344371 0.118965 -1.401748 -0.351192 -0.910915 0.139640 1.401748 2.977453
129.000000 0.000000 110.000000 0.590000 21212.506000 7.000000 2.000000 -0.589793 -0.543961 0.596867 0.759467 -0.624331 0.182056 0.275523 0.559444 0.781247 -0.173999 -0.033151 0.207150 -1.102800 0.258958 -0.174286 0.000000 0.000000 0.000000 0.357189 0.942978 1.000000 1.000000 0.822787 0.098751 0.624763 1.000000 0.966808 0.357189 0.942978 1.000000 0.068610 0.026314 1.000000 0.312911 1.000000 0.529144 -0.173769 -0.033576 0.207345 -1.102544 0.258931 -0.173925 -0.453809 0.901398 -0.447588 -0.155141 -0.311548 -0.787101 -0.176723 -0.034146 0.210870 -1.753266 0.411753 -0.276576 -0.684928 1.333014 -0.648085 -0.279532 -0.542767 -1.285551 0.825658 0.489464 -0.605877 -0.942072 -0.444622 0.986914 -0.670445 0.761090 -0.381036 -0.155213 -0.044842 0.180981 0.986914 3.174149
130.000000 0.000000 109.000000 0.670000 18381.809000 8.000000 2.000000 -0.759695 0.624316 -0.181915 -0.589806 -0.544315 0.596825 0.275308 0.559361 0.781402 -0.062141 -0.239545 0.301687 0.243877 1.041456 0.162215 0.000000 0.000000 0.000000 0.357845 0.943099 1.000000 1.000000 0.821507 0.099718 0.625969 1.000000 0.969017 0.357845 0.943099 1.000000 0.068498 0.025770 1.000000 0.313740 1.000000 0.529145 -0.062264 -0.239313 0.301577 0.243457 1.041258 0.162107 -0.465628 0.938565 -0.472937 -0.115860 -0.263637 -0.708658 -0.063322 -0.243381 0.306704 0.387146 1.655808 0.257783 -0.685296 1.347496 -0.662201 -0.233368 -0.481258 -1.178421 0.591438 -0.760524 0.907541 -0.444420 0.203875 -0.112228 0.414353 0.098250 -0.795313 -1.005791 0.556649 0.346170 1.005791 3.018289
131.000000 0.000000 107.000000 0.660000 19171.133000 9.000000 2.000000 -0.759943 0.624116 -0.181564 -0.589585 -0.544649 0.596828 0.275373 0.559258 0.781351 -0.070956 -0.301643 0.372599 0.311493 1.046590 0.118544 0.000000 0.000000 0.000000 0.359045 0.941812 1.000000 1.000000 0.821404 0.100199 0.628279 1.000000 0.971320 0.359045 0.941812 1.000000 0.068397 0.025253 1.000000 0.313619 1.000000 0.527776 -0.070947 -0.301409 0.372356 0.311679 1.046571 0.118418 -0.550500 0.999198 -0.448697 -0.061328 -0.216409 -0.722331 -0.072153 -0.306533 0.378686 0.495632 1.664258 0.188309 -0.808152 1.409455 -0.601302 -0.157629 -0.423717 -1.211260 0.572775 -0.786086 0.977456 -0.381405 0.309519 -0.095163 0.463272 0.058590 -0.882293 -1.036047 0.476568 0.322814 1.036047 3.084875
132.000000 0.000000 109.000000 1.630000 17812.298000 10.000000 2.000000 -0.759905 0.624204 -0.181422 -0.589777 -0.545101 0.596994 0.275265 0.559879 0.781150 0.134089 -0.552413 0.418324 0.596837 0.707819 0.194371 0.000000 0.000000 0.000000 0.360387 0.940769 1.000000 1.000000 0.820779 0.099006 0.628119 1.000000 0.972794 0.360387 0.940769 1.000000 0.068368 0.025526 1.000000 0.313767 1.000000 0.528975 0.134223 -0.552265 0.418042 0.596783 0.707802 0.194367 -0.398199 0.817038 -0.418839 0.291274 0.103050 -0.739978 0.136505 -0.561653 0.425148 0.949004 1.125547 0.309083 -0.585955 1.081647 -0.495692 0.416650 -0.033969 -1.210850 0.357095 -0.561910 1.131954 0.212949 0.379085 -0.395774 0.631450 -0.143408 -0.736180 -0.988545 0.182825 -0.069540 1.131954 2.749772
133.000000 0.000000 101.000000 1.870000 11614.860000 11.000000 2.000000 -0.755858 0.628837 -0.182326 -0.593480 -0.544241 0.596343 0.276855 0.559447 0.781499 0.734290 -1.279996 0.545706 1.366987 -0.021906 1.185648 0.000000 0.000000 0.000000 0.346504 0.940525 1.000000 1.000000 0.835333 0.091955 0.613118 1.000000 0.982110 0.346504 0.940525 1.000000 0.074754 0.028313 1.000000 0.319194 1.000000 0.534392 0.733911 -1.279917 0.546006 1.366955 -0.021902 1.185701 0.638676 0.448754 -1.087430 1.400549 0.722873 -1.064153 0.746387 -1.301676 0.555288 2.173732 -0.034829 1.885501 1.007104 0.387340 -1.394444 2.222303 0.606501 -1.643315 -0.065523 -0.037085 1.709322 1.737760 0.039654 -1.735191 1.579159 -0.195686 0.025869 -1.513636 -0.002569 -1.542074 1.737760 5.355746
134.000000 0.000000 84.000000 4.620000 6959.349000 12.000000 2.000000 -0.757077 0.627026 -0.183501 -0.595620 -0.551223 0.600265 0.276951 0.566360 0.780904 4.315164 -4.997518 0.682354 4.130591 -1.048753 2.372167 0.000000 0.000000 0.000000 0.370963 0.944389 1.000000 1.000000 0.831564 0.080461 0.608563 1.000000 0.980996 0.370963 0.944389 1.000000 0.072248 0.035296 1.000000 0.318811 1.000000 0.541407 4.314597 -4.996842 0.682245 4.130280 -1.048726 2.371395 2.041264 0.177744 -2.219009 3.676808 4.183765 -3.197404 4.387945 -5.081789 0.693843 6.567971 -1.667684 3.770992 2.775491 -0.376004 -2.399487 6.177467 4.250565 -4.459853 0.503811 1.865469 5.866536 7.228195 -0.366249 -5.728975 2.712753 -2.649972 -0.137562 -3.216564 -1.499220 -4.578222 7.228195 15.772110
135.000000 0.000000 116.000000 1.220000 37259.531000 13.000000 2.000000 -0.787206 -0.316040 0.529552 0.599951 -0.591120 0.539501 0.143583 0.742279 0.653413 -0.171466 -0.385292 0.556758 0.058402 0.802519 -0.113218 0.000000 0.000000 0.000000 0.289501 1.000000 0.381916 1.000000 0.009598 0.195668 0.222861 1.000000 0.051408 0.289501 1.000000 0.381916 0.278988 0.716042 1.000000 0.126307 0.013463 1.000000 -0.171357 -0.385343 0.556701 0.058188 0.802703 -0.113044 -0.298112 0.687740 -0.389627 0.563945 -0.007206 -0.479023 -0.174270 -0.391894 0.566165 0.092530 1.276459 -0.179763 -0.340319 0.784764 -0.444444 0.876808 0.045487 -0.828859 0.572181 -0.470043 0.647732 -0.394492 0.413445 0.337894 0.266669 0.191118 -0.985626 -0.838850 0.056598 0.203374 0.985626 2.401543
136.000000 0.000000 117.000000 0.890000 38189.477000 14.000000 2.000000 -0.599885 0.590926 -0.539393 -0.787105 -0.315849 0.529456 0.143542 0.741937 0.653198 -0.440872 -0.248880 0.689752 0.743100 0.004577 0.027952 0.000000 0.000000 0.000000 0.289655 1.000000 0.382210 1.000000 0.009733 0.195571 0.222835 1.000000 0.051180 0.289655 1.000000 0.382210 0.279178 0.715994 1.000000 0.126332 0.013475 1.000000 -0.440981 -0.248909 0.689890 0.743363 0.004681 0.027899 -0.441263 0.816284 -0.375021 0.483348 -0.030300 -0.429178 -0.448477 -0.253141 0.701618 1.182096 0.007443 0.044365 -0.530509 0.915256 -0.384747 0.746858 0.002378 -0.765984 -0.559296 -0.565373 0.405882 0.399804 0.934001 -0.031176 0.970225 0.005048 -0.374705 -0.410929 -0.368628 -0.404852 0.970225 2.309620
137.000000 0.000000 118.000000 1.020000 31204.844000 15.000000 2.000000 -0.599916 0.590845 -0.539448 -0.786911 -0.315512 0.529412 0.143960 0.741991 0.653497 -0.436000 0.037940 0.398060 0.711965 0.245439 -0.035431 0.000000 0.000000 0.000000 0.290300 1.000000 0.382655 1.000000 0.009987 0.196134 0.222504 1.000000 0.050642 0.290300 1.000000 0.382655 0.278483 0.716999 1.000000 0.126060 0.012735 1.000000 -0.436560 0.038345 0.398216 0.712334 0.245301 -0.035468 -0.362476 0.577052 -0.214576 0.287793 -0.216182 -0.599496 -0.443982 0.038997 0.404985 1.132753 0.390077 -0.056402 -0.504742 0.696847 -0.192105 0.429858 -0.214992 -1.000083 -0.500371 -0.818868 0.424518 0.106021 0.832060 -0.092829 0.786008 -0.138881 -0.331689 -0.285637 -0.013192 0.032860 0.832060 2.204403
138.000000 0.000000 117.000000 0.600000 35169.046000 16.000000 2.000000 -0.599799 0.590924 -0.539490 -0.787086 -0.315504 0.529507 0.143668 0.742217 0.653131 -0.411975 -0.123264 0.535239 0.708478 -0.032002 0.004958 0.000000 0.000000 0.000000 0.290187 1.000000 0.382910 1.000000 0.009120 0.196060 0.222922 1.000000 0.050693 0.290187 1.000000 0.382910 0.279414 0.716887 1.000000 0.125785 0.013529 1.000000 -0.412067 -0.123610 0.535677 0.708579 -0.032191 0.004568 -0.364298 0.652156 -0.287857 0.492812 -0.080670 -0.411514 -0.419073 -0.125711 0.544784 1.126783 -0.051190 0.007264 -0.456782 0.739879 -0.283097 0.761095 -0.050889 -0.718650 -0.600669 -0.558873 0.319345 0.361141 0.850534 -0.069480 0.856465 -0.063549 -0.249865 -0.255796 -0.291661 -0.297592 0.856465 2.132899
139.000000 0.000000 115.000000 0.700000 34944.744000 17.000000 2.000000 -0.599678 0.590953 -0.539593 -0.787100 -0.315230 0.529377 0.144139 0.741772 0.653590 -0.447627 -0.015087 0.462715 0.643919 0.378911 -0.035598 0.000000 0.000000 0.000000 0.291218 1.000000 0.383408 1.000000 0.010317 0.196276 0.223102 1.000000 0.050490 0.291218 1.000000 0.383408 0.278276 0.718804 1.000000 0.126105 0.012953 1.000000 -0.447507 -0.014996 0.462503 0.643989 0.379237 -0.035702 -0.406096 0.654153 -0.248057 0.140917 -0.217729 -0.610387 -0.455115 -0.015251 0.470366 1.024072 0.603063 -0.056773 -0.553770 0.783797 -0.230027 0.196652 -0.229278 -1.025543 -0.351450 -0.843849 0.484701 -0.007698 0.819079 -0.017072 0.772724 -0.063427 -0.467629 -0.421274 0.024770 0.071125 0.843849 2.211290
140.000000 0.000000 114.000000 0.660000 31279.034000 18.000000 2.000000 -0.599408 0.591206 -0.539615 -0.787045 -0.314873 0.529323 0.144286 0.741471 0.653831 -0.523419 0.093035 0.430384 0.471557 0.471538 0.012709 0.000000 0.000000 0.000000 0.292436 1.000000 0.384724 1.000000 0.011004 0.196252 0.223462 1.000000 0.050555 0.292436 1.000000 0.384724 0.277621 0.719945 1.000000 0.126319 0.012936 1.000000 -0.523384 0.092764 0.430619 0.471683 0.471458 0.012643 -0.298436 0.609713 -0.311277 -0.023587 -0.316932 -0.546850 -0.532281 0.094341 0.437940 0.750070 0.749712 0.020105 -0.404942 0.730930 -0.325988 -0.072130 -0.336747 -0.919909 -0.255964 -0.868101 0.356466 -0.255672 0.694098 0.081668 0.710514 0.098084 -0.438134 -0.454550 0.174003 0.157587 0.868101 2.025156
141.000000 0.000000 114.000000 0.670000 33785.388000 19.000000 2.000000 -0.599136 0.591390 -0.539717 -0.787330 -0.314515 0.529244 0.144493 0.741297 0.653693 -0.563601 -0.017059 0.580660 0.475869 0.493287 -0.036933 0.000000 0.000000 0.000000 0.293545 1.000000 0.385836 1.000000 0.010844 0.196648 0.224237 1.000000 0.050549 0.293545 1.000000 0.385836 0.277719 0.722298 1.000000 0.126305 0.013276 1.000000 -0.563896 -0.016938 0.580834 0.476149 0.493368 -0.036940 -0.429481 0.759860 -0.330379 -0.037145 -0.298570 -0.522773 -0.573483 -0.017226 0.590708 0.757172 0.784553 -0.058743 -0.567956 0.886362 -0.318405 -0.093942 -0.326970 -0.900450 -0.215912 -0.856498 0.402316 -0.238269 0.808375 0.190146 0.760411 0.142183 -0.592462 -0.544499 0.048123 0.096086 0.856498 2.143368
142.000000 0.000000 114.000000 0.710000 41283.580000 20.000000 2.000000 -0.598994 0.591413 -0.539849 -0.787802 -0.314634 0.529470 0.144436 0.741620 0.653787 -0.289513 -0.271469 0.560981 0.483640 0.429794 0.012544 0.000000 0.000000 0.000000 0.293123 1.000000 0.385600 1.000000 0.010596 0.196619 0.225046 1.000000 0.050500 0.293123 1.000000 0.385600 0.277803 0.723423 1.000000 0.125984 0.014118 1.000000 -0.289560 -0.271930 0.561490 0.483448 0.430167 0.012324 -0.433789 0.730525 -0.296736 -0.023517 -0.024540 -0.499346 -0.294482 -0.276553 0.571035 0.768778 0.684051 0.019598 -0.540300 0.850212 -0.309913 -0.049664 -0.035887 -0.863019 -0.041910 -0.600435 0.585795 0.027270 0.659198 0.031493 0.675199 0.047494 -0.617288 -0.633290 -0.058763 -0.074764 0.675199 1.977856
143.000000 0.000000 117.000000 0.660000 44683.540000 21.000000 2.000000 -0.598680 0.591596 -0.539997 -0.787766 -0.314072 0.529048 0.144573 0.741672 0.653282 -0.523336 -0.076633 0.599969 0.606740 0.276416 -0.065206 0.000000 0.000000 0.000000 0.294913 1.000000 0.386658 1.000000 0.009397 0.197429 0.225498 1.000000 0.050469 0.294913 1.000000 0.386658 0.278501 0.725320 1.000000 0.125609 0.014346 1.000000 -0.523584 -0.076687 0.600271 0.606916 0.277090 -0.065562 -0.470853 0.758598 -0.287745 0.203931 -0.220992 -0.489067 -0.532485 -0.077990 0.610475 0.965117 0.440629 -0.104256 -0.621166 0.873507 -0.252341 0.293496 -0.231025 -0.849615 -0.399668 -0.759440 0.388347 0.028575 0.903182 0.115166 0.818057 0.030042 -0.503513 -0.418388 -0.143741 -0.058617 0.903182 2.098304
144.000000 0.000000 113.000000 0.500000 27265.445000 22.000000 2.000000 -0.598385 0.591696 -0.540214 -0.787773 -0.313586 0.529123 0.144547 0.741416 0.653396 -0.598885 -0.044949 0.643834 0.321452 0.388507 -0.001927 0.000000 0.000000 0.000000 0.296144 1.000000 0.388003 1.000000 0.009844 0.197237 0.225958 1.000000 0.049909 0.296144 1.000000 0.388003 0.278575 0.726257 1.000000 0.125498 0.014750 1.000000 -0.598856 -0.045340 0.644196 0.321500 0.388735 -0.001909 -0.371475 0.769107 -0.397631 -0.047149 -0.289171 -0.335648 -0.609036 -0.046111 0.655148 0.511250 0.618166 -0.003036 -0.459448 0.865904 -0.406456 -0.111262 -0.310469 -0.610601 -0.186165 -0.690895 0.231269 -0.273461 0.726057 0.308623 0.723578 0.306145 -0.539892 -0.537413 -0.035162 -0.032683 0.726057 1.770296
145.000000 0.000000 106.000000 0.540000 16481.060000 23.000000 2.000000 -0.598455 0.591661 -0.540175 -0.788407 -0.313654 0.529801 0.143593 0.741467 0.653400 -0.338090 -0.664455 1.002545 -0.199411 0.093699 -0.031847 0.000000 0.000000 0.000000 0.295071 1.000000 0.388784 1.000000 0.010217 0.195467 0.226654 1.000000 0.049536 0.295071 1.000000 0.388784 0.279441 0.723483 1.000000 0.125189 0.016751 1.000000 -0.338124 -0.664591 1.002715 -0.199547 0.093857 -0.032025 -0.514356 0.950589 -0.436233 -0.181399 0.126753 0.319632 -0.343873 -0.675889 1.019761 -0.317320 0.149252 -0.050926 -0.523747 0.955067 -0.431320 -0.295332 0.109347 0.384223 0.326022 0.204159 0.066932 -0.054932 0.447946 0.707037 0.406365 0.665456 -0.773969 -0.732388 -0.652105 -0.610524 0.773969 1.673071
146.000000 0.000000 101.000000 0.890000 11301.828000 24.000000 2.000000 -0.598116 0.591851 -0.540343 -0.788265 -0.313042 0.529614 0.144858 0.742083 0.652733 -0.404146 -0.327669 0.731815 0.397123 0.069839 -0.013278 0.000000 0.000000 0.000000 0.296469 1.000000 0.390100 1.000000 0.007629 0.198680 0.226950 1.000000 0.049200 0.296469 1.000000 0.390100 0.280148 0.730099 1.000000 0.124456 0.015457 1.000000 -0.404487 -0.327713 0.732200 0.397484 0.069662 -0.013182 -0.448266 0.802581 -0.354314 0.215867 -0.017617 -0.185373 -0.411363 -0.333284 0.744647 0.632078 0.110777 -0.020962 -0.522025 0.870163 -0.348138 0.325710 -0.009138 -0.384727 -0.244696 -0.335145 0.271394 0.180945 0.738542 0.222452 0.721426 0.205337 -0.493846 -0.476730 -0.403397 -0.386281 0.738542 1.577624
147.000000 0.000000 90.000000 1.610000 6459.130000 25.000000 2.000000 -0.597742 0.591488 -0.541153 -0.787745 -0.312122 0.528059 0.145674 0.740258 0.652546 -1.364058 0.232342 1.131716 0.615004 1.179916 -0.244643 0.000000 0.000000 0.000000 0.300925 1.000000 0.389394 1.000000 0.009155 0.199422 0.226834 1.000000 0.048281 0.300925 1.000000 0.389394 0.280064 0.733908 1.000000 0.125424 0.013929 1.000000 -1.364794 0.232636 1.132158 0.615032 1.180063 -0.244911 -0.895696 1.463355 -0.567660 -0.392692 -0.931209 -0.880773 -1.387996 0.236591 1.151405 0.978023 1.876537 -0.389457 -1.242318 1.699960 -0.457642 -0.715034 -1.048040 -1.533861 -0.296418 -1.828604 0.502135 -1.030051 1.594978 0.796425 1.276987 0.478435 -1.298559 -0.980569 0.233626 0.551617 1.828604 4.341791
148.000000 0.000000 113.000000 0.450000 22271.639000 26.000000 2.000000 -0.179782 -0.979199 -0.094060 -0.048378 0.104950 -0.993281 0.982782 -0.173707 -0.064539 0.026583 0.046798 -0.073381 0.835041 0.261586 0.321333 0.000000 0.000000 0.000000 1.000000 0.233224 0.101048 0.465420 1.000000 0.562355 0.386631 1.000000 0.150978 1.000000 0.233224 0.101048 1.000000 0.122898 0.223784 1.000000 0.044841 0.127645 0.026904 0.046684 -0.073589 0.834957 0.261611 0.321164 -0.233598 0.557697 -0.324099 0.179190 -0.507823 -0.589567 0.027362 0.047478 -0.074840 1.327749 0.416014 0.510716 -0.331289 0.869648 -0.538359 0.279080 -0.804458 -0.947705 -0.380426 -0.720101 0.703676 0.364002 0.291829 -0.792274 0.708826 -0.375276 0.088598 -0.328400 0.428272 0.011274 0.792274 2.569699
149.000000 0.000000 114.000000 0.420000 24305.159000 27.000000 2.000000 0.179956 0.979182 0.093910 -0.982750 0.173754 0.064870 0.048690 -0.104868 0.993294 0.032550 -0.064300 0.031751 0.818284 0.321732 0.311824 0.000000 0.000000 0.000000 1.000000 0.232786 0.101805 0.465493 1.000000 0.563747 0.386179 1.000000 0.150560 1.000000 0.232786 0.101805 1.000000 0.123328 0.223651 1.000000 0.044129 0.128220 0.032456 -0.064339 0.031883 0.818095 0.321791 0.311979 -0.243625 0.569936 -0.326311 0.162384 -0.467610 -0.618795 0.033008 -0.065432 0.032425 1.300935 0.511711 0.496110 -0.352450 0.889523 -0.537074 0.257783 -0.740275 -0.993578 -0.282011 -0.699822 0.780198 0.362387 0.328330 -0.733878 0.733402 -0.328807 -0.046319 -0.451391 0.371491 -0.033581 0.780198 2.571157
150.000000 0.000000 111.000000 0.420000 22763.327000 28.000000 2.000000 0.179981 0.979185 0.093832 -0.982939 0.173908 0.065337 0.049045 -0.104824 0.993484 0.180759 -0.159162 -0.021597 0.762878 0.297092 0.245938 0.000000 0.000000 0.000000 1.000000 0.232407 0.102797 0.465902 1.000000 0.564703 0.385503 1.000000 0.149783 1.000000 0.232407 0.102797 1.000000 0.123273 0.223600 1.000000 0.043429 0.128835 0.180432 -0.159090 -0.021341 0.762788 0.297420 0.246055 -0.302884 0.596384 -0.293500 0.066866 -0.483270 -0.505183 0.183499 -0.161795 -0.021704 1.212986 0.472958 0.391277 -0.396917 0.887011 -0.490094 0.157731 -0.752240 -0.833832 -0.161150 -0.547318 0.829249 0.443081 0.251688 -0.738711 0.571164 -0.419235 -0.090538 -0.410014 0.295630 -0.023846 0.829249 2.373783
151.000000 0.000000 111.000000 0.580000 19841.789000 29.000000 2.000000 0.179638 0.979297 0.093316 -0.982715 0.174095 0.065530 0.049225 -0.104499 0.993044 -0.031572 -0.196701 0.228273 0.746466 0.413090 -0.036148 0.000000 0.000000 0.000000 1.000000 0.232272 0.103442 0.463294 1.000000 0.563040 0.384876 1.000000 0.148900 1.000000 0.232272 0.103442 1.000000 0.123490 0.222552 1.000000 0.042677 0.128968 -0.031699 -0.196747 0.228446 0.746628 0.413153 -0.035747 -0.242681 0.555108 -0.312427 0.359873 -0.577895 -0.282104 -0.032238 -0.200092 0.232329 1.187288 0.656996 -0.056845 -0.276784 0.857345 -0.580561 0.502307 -0.919429 -0.469087 -0.147965 -0.684400 0.821452 0.285017 0.615924 -0.353493 0.569511 -0.399906 -0.467960 -0.421546 0.068475 0.114889 0.821452 2.382471
152.000000 0.000000 113.000000 0.470000 18277.737000 30.000000 2.000000 0.179378 0.979330 0.093470 -0.982750 0.173878 0.066209 0.049474 -0.104608 0.993138 0.021387 -0.185556 0.164169 0.527358 0.371422 -0.093786 0.000000 0.000000 0.000000 1.000000 0.230817 0.104832 0.464211 1.000000 0.563089 0.384699 1.000000 0.147898 1.000000 0.230817 0.104832 1.000000 0.122488 0.222986 1.000000 0.042430 0.129439 0.021251 -0.185620 0.164368 0.527507 0.371306 -0.093953 -0.189623 0.472548 -0.282925 0.275235 -0.442578 -0.120989 0.021613 -0.188775 0.167163 0.838841 0.590450 -0.149404 -0.199457 0.717378 -0.517921 0.398490 -0.700140 -0.215204 -0.015515 -0.497615 0.669396 0.187296 0.462870 -0.222041 0.340882 -0.344029 -0.447355 -0.325367 0.034745 0.156733 0.669396 1.822057
153.000000 0.000000 110.000000 0.390000 18395.297000 31.000000 2.000000 0.179763 0.979219 0.093895 -0.983031 0.173353 0.066941 0.050026 -0.105064 0.993810 0.346882 -0.094072 -0.252810 0.431122 0.287160 0.338280 0.000000 0.000000 0.000000 1.000000 0.228820 0.106187 0.468186 1.000000 0.567157 0.384481 1.000000 0.147171 1.000000 0.228820 0.106187 1.000000 0.122100 0.224116 1.000000 0.042051 0.130744 0.346520 -0.093934 -0.252586 0.431109 0.286974 0.338262 -0.236483 0.587476 -0.350993 -0.169599 -0.186542 -0.391529 0.352411 -0.095531 -0.256880 0.685550 0.456345 0.537904 -0.330086 0.850341 -0.520255 -0.113614 -0.267679 -0.656745 0.089299 -0.283305 0.649049 0.276444 -0.188466 -0.748215 0.250731 -0.309018 0.099167 -0.340030 0.471771 0.032574 0.748215 1.789322
154.000000 0.000000 109.000000 0.370000 18063.079000 32.000000 2.000000 0.179763 0.979209 0.093992 -0.982977 0.173418 0.066541 0.050092 -0.105195 0.993713 0.297677 -0.074648 -0.223028 0.678747 0.301280 0.318387 0.000000 0.000000 0.000000 1.000000 0.229603 0.105304 0.468268 1.000000 0.567389 0.384791 1.000000 0.146991 1.000000 0.229603 0.105304 1.000000 0.122039 0.224193 1.000000 0.042091 0.130936 0.297580 -0.074570 -0.223010 0.678708 0.301184 0.318225 -0.236407 0.621035 -0.384628 -0.097840 -0.390681 -0.517288 0.302639 -0.075837 -0.226801 1.079281 0.478943 0.506042 -0.339825 0.916497 -0.576672 -0.019912 -0.596445 -0.851211 -0.090575 -0.481630 0.790654 0.399599 0.017881 -0.863348 0.431062 -0.450167 0.072694 -0.340488 0.463749 0.050568 0.863348 2.274666
155.000000 0.000000 104.000000 0.450000 17173.786000 33.000000 2.000000 0.179301 0.979291 0.094024 -0.982783 0.173260 0.066404 0.050073 -0.105228 0.993336 0.097737 -0.046953 -0.050784 0.740683 0.336731 0.150062 0.000000 0.000000 0.000000 1.000000 0.229414 0.105053 0.467278 1.000000 0.565485 0.385132 1.000000 0.146293 1.000000 0.229414 0.105053 1.000000 0.121196 0.224115 1.000000 0.042229 0.130861 0.097651 -0.046852 -0.050799 0.740280 0.336757 0.149678 -0.161688 0.539988 -0.378299 0.116277 -0.498489 -0.445586 0.099311 -0.047649 -0.051662 1.177193 0.535511 0.238019 -0.232911 0.831763 -0.598853 0.223361 -0.784345 -0.720535 -0.201969 -0.639212 0.759205 0.321962 0.321782 -0.639392 0.516123 -0.445051 -0.119812 -0.314154 0.317430 0.123089 0.759205 2.282504
156.000000 0.000000 101.000000 0.630000 12629.714000 34.000000 2.000000 0.179118 0.979355 0.093710 -0.982398 0.173244 0.066240 0.049866 -0.104968 0.992756 -0.237515 0.009360 0.228155 0.707497 0.419452 0.045894 0.000000 0.000000 0.000000 1.000000 0.229443 0.104890 0.464928 1.000000 0.563683 0.385371 1.000000 0.146535 1.000000 0.229443 0.104890 1.000000 0.121543 0.223486 1.000000 0.042243 0.130363 -0.237843 0.009886 0.227958 0.707422 0.419391 0.045834 -0.075506 0.446543 -0.371037 0.437104 -0.469004 -0.387739 -0.241887 0.010054 0.231833 1.124943 0.666916 0.072885 -0.121494 0.758892 -0.637399 0.573162 -0.765141 -0.599442 -0.289843 -0.834378 0.628669 0.084134 0.622896 -0.295616 0.682406 -0.236105 -0.333053 -0.392564 0.211481 0.151971 0.834378 2.305492
157.000000 0.000000 83.000000 1.010000 5587.415000 35.000000 2.000000 0.179656 0.979154 0.094767 -0.982742 0.172160 0.067499 0.050732 -0.105651 0.993827 0.234391 0.245534 -0.479925 0.480783 0.076674 0.793993 0.000000 0.000000 0.000000 1.000000 0.225692 0.107115 0.472239 1.000000 0.570363 0.385213 1.000000 0.145289 1.000000 0.225692 0.107115 1.000000 0.120104 0.226093 1.000000 0.041632 0.132408 0.234732 0.245222 -0.479954 0.480826 0.076799 0.793925 -0.081407 0.403160 -0.321754 -0.363181 0.012944 -0.878516 0.238722 0.249391 -0.488113 0.764609 0.122125 1.262500 -0.268755 0.633690 -0.364935 -0.388226 0.037449 -1.384399 -0.266648 -0.366363 0.357652 0.257937 -0.499993 -1.124293 0.530834 -0.093466 0.766641 -0.264186 0.866356 -0.164471 1.124293 2.667678
158.000000 0.000000 104.000000 0.990000 16223.653000 36.000000 2.000000 0.183838 0.981533 0.052889 0.980446 -0.178002 -0.086667 -0.077092 0.068479 -0.995066 0.209832 -0.024647 -0.185185 0.766203 -0.207528 -0.472494 0.000000 0.000000 0.000000 1.000000 0.190524 0.164356 0.357421 1.000000 0.602323 0.280371 1.000000 0.106787 1.000000 0.190524 0.164356 1.000000 0.195499 0.146137 1.000000 0.054335 0.102030 0.209484 -0.024566 -0.184918 0.766494 -0.207518 -0.472428 -0.297033 0.573366 -0.276333 -0.097844 -0.353107 -0.715668 0.213046 -0.024983 -0.188062 1.218879 -0.329995 -0.751255 -0.462204 0.874561 -0.412357 -0.049860 -0.541319 -1.153196 -0.535150 -0.265710 0.460060 0.729500 0.640553 -0.354658 0.027155 -0.968055 -0.105402 0.507995 -0.374842 0.238555 0.968055 2.568835
159.000000 0.000000 104.000000 0.740000 17734.784000 37.000000 2.000000 0.183833 0.981545 0.052671 -0.980394 0.177968 0.086731 0.076992 -0.068288 0.995109 0.200029 0.016861 -0.216890 0.663615 0.231095 0.488252 0.000000 0.000000 0.000000 1.000000 0.190254 0.164569 0.356802 1.000000 0.601822 0.279992 1.000000 0.107051 1.000000 0.190254 0.164569 1.000000 0.195914 0.145701 1.000000 0.054388 0.101695 0.200229 0.016639 -0.216868 0.663713 0.230801 0.488608 -0.247419 0.561130 -0.313711 -0.118171 -0.258905 -0.676739 0.203633 0.016922 -0.220555 1.055436 0.367020 0.776984 -0.405712 0.863855 -0.458143 -0.075757 -0.392049 -1.085237 -0.204820 -0.504491 0.656940 0.357269 -0.059497 -0.921256 0.574908 -0.286851 0.264317 -0.370088 0.563987 -0.070418 0.921256 2.385929
160.000000 0.000000 90.000000 0.940000 12296.203000 38.000000 2.000000 0.183354 0.981654 0.052311 -0.980382 0.178691 0.086048 0.077165 -0.067569 0.994644 0.052552 -0.186738 0.134186 1.068830 0.075037 -0.078525 0.000000 0.000000 0.000000 1.000000 0.192543 0.163382 0.353509 1.000000 0.599192 0.279002 1.000000 0.106115 1.000000 0.192543 0.163382 1.000000 0.195864 0.144573 1.000000 0.055637 0.100168 0.052702 -0.186896 0.134194 1.068930 0.074867 -0.078317 -0.308302 0.360180 -0.051878 0.210857 -0.890650 -0.480368 0.053598 -0.190073 0.136475 1.699812 0.119054 -0.124540 -0.388855 0.531557 -0.142702 0.311943 -1.412861 -0.792030 -0.545863 -0.643071 0.842027 0.744820 0.778623 -0.609267 0.676937 -0.710954 -0.232760 -0.131073 -0.135553 -0.033866 0.842027 2.973814
161.000000 0.000000 94.000000 1.240000 12018.130000 39.000000 2.000000 0.183334 0.981675 0.051981 -0.980422 0.177691 0.087165 0.077430 -0.067771 0.995123 0.209278 0.010429 -0.219706 0.607688 0.303366 0.389780 0.000000 0.000000 0.000000 1.000000 0.188639 0.165743 0.354825 1.000000 0.600343 0.278285 1.000000 0.105640 1.000000 0.188639 0.165743 1.000000 0.196081 0.144221 1.000000 0.055767 0.100656 0.209776 0.010116 -0.219892 0.607595 0.303242 0.389689 -0.207714 0.589852 -0.382138 -0.095633 -0.264706 -0.558077 0.213342 0.010288 -0.223630 0.966198 0.482215 0.619683 -0.339133 0.906997 -0.567864 -0.036549 -0.400370 -0.897885 -0.114689 -0.508416 0.674208 0.280481 -0.036929 -0.825826 0.469040 -0.319857 0.151618 -0.354351 0.545345 0.039376 0.825826 2.189447
162.000000 0.000000 93.000000 0.920000 13526.763000 40.000000 2.000000 0.184452 0.981862 0.043870 -0.980332 0.179557 0.091050 0.083003 -0.060989 0.995950 0.683369 -0.105442 -0.577927 0.817166 0.439603 0.265339 0.000000 0.000000 0.000000 1.000000 0.182708 0.177346 0.335839 1.000000 0.610004 0.259525 1.000000 0.098919 1.000000 0.182708 0.177346 1.000000 0.211576 0.128853 1.000000 0.074963 0.086103 0.683297 -0.105727 -0.577570 0.817414 0.439518 0.265121 -0.297142 0.888972 -0.591830 -0.405193 -0.566513 -0.487780 0.694913 -0.107524 -0.587389 1.299852 0.698921 0.421596 -0.425367 1.293413 -0.868047 -0.305100 -0.833239 -0.827371 0.082265 -0.488402 1.143589 0.572923 -0.164951 -1.226276 0.179281 -0.882044 0.082686 -0.261545 0.653353 0.309121 1.226276 2.885617
163.000000 0.000000 104.000000 0.630000 20951.608000 41.000000 2.000000 0.184561 0.981848 0.043719 -0.980159 0.179840 0.090989 0.082645 -0.060640 0.995783 0.570075 -0.095719 -0.474355 0.650869 0.375227 0.173057 0.000000 0.000000 0.000000 1.000000 0.183271 0.177338 0.334690 1.000000 0.609086 0.259469 1.000000 0.099835 1.000000 0.183271 0.177338 1.000000 0.212165 0.128592 1.000000 0.074784 0.085477 0.570020 -0.095547 -0.474474 0.650924 0.375232 0.173076 -0.231849 0.729591 -0.497742 -0.329480 -0.474651 -0.351130 0.579711 -0.097171 -0.482540 1.035099 0.596694 0.275225 -0.325395 1.058787 -0.733391 -0.242940 -0.698452 -0.602625 0.097358 -0.389841 0.942513 0.455314 -0.123445 -0.968599 0.101275 -0.743879 0.026087 -0.198633 0.513286 0.288565 0.968599 2.318878
164.000000 0.000000 108.000000 0.500000 23802.057000 42.000000 2.000000 0.184698 0.981829 0.043583 -0.980189 0.179903 0.090786 0.082513 -0.060425 0.995847 0.590348 -0.096857 -0.493491 0.668447 0.341954 0.224322 0.000000 0.000000 0.000000 1.000000 0.183669 0.176952 0.334183 1.000000 0.608957 0.259167 1.000000 0.100354 1.000000 0.183669 0.176952 1.000000 0.212759 0.128269 1.000000 0.074810 0.085092 0.590177 -0.096878 -0.493299 0.668093 0.342074 0.224269 -0.254671 0.724045 -0.469373 -0.362701 -0.465315 -0.401751 0.600210 -0.098525 -0.501685 1.062402 0.543966 0.356633 -0.361283 1.046872 -0.685588 -0.285230 -0.681597 -0.684418 0.073606 -0.370540 0.941054 0.496908 -0.161717 -1.029165 0.129472 -0.737976 0.088111 -0.203078 0.532257 0.241068 1.029165 2.363857
165.000000 0.000000 108.000000 0.500000 22070.963000 43.000000 2.000000 0.184746 0.981824 0.043476 -0.980291 0.179803 0.090532 0.082252 -0.060162 0.995968 0.637787 -0.109068 -0.528719 0.638839 0.285610 0.317138 0.000000 0.000000 0.000000 1.000000 0.183814 0.176412 0.333661 1.000000 0.608127 0.258809 1.000000 0.101000 1.000000 0.183814 0.176412 1.000000 0.213147 0.127947 1.000000 0.074612 0.084679 0.637925 -0.108780 -0.529145 0.638643 0.285769 0.316878 -0.294745 0.709025 -0.414281 -0.435592 -0.402140 -0.455260 0.648770 -0.110630 -0.538140 1.015571 0.454431 0.503899 -0.419242 1.013938 -0.594696 -0.378624 -0.576543 -0.773735 0.080939 -0.290102 0.910149 0.539108 -0.275665 -1.104875 0.135767 -0.693443 0.194726 -0.216706 0.565767 0.154335 1.104875 2.357863
166.000000 0.000000 105.000000 0.660000 22166.934000 44.000000 2.000000 0.185100 0.981766 0.043283 -0.980497 0.179891 0.090399 0.082393 -0.060161 0.996314 0.824762 -0.127166 -0.697596 0.767969 0.344392 0.482526 0.000000 0.000000 0.000000 1.000000 0.184223 0.176155 0.334014 1.000000 0.609669 0.258319 1.000000 0.101306 1.000000 0.184223 0.176155 1.000000 0.214170 0.127556 1.000000 0.074882 0.084632 0.824602 -0.127163 -0.697439 0.768284 0.344505 0.482804 -0.386312 0.898432 -0.512120 -0.594903 -0.435282 -0.616929 0.838620 -0.129324 -0.709295 1.221725 0.547832 0.767755 -0.557724 1.284354 -0.726630 -0.536324 -0.610617 -1.043519 0.120046 -0.327257 1.117580 0.670278 -0.446601 -1.444136 0.180268 -0.817266 0.326556 -0.300314 0.773858 0.146989 1.444136 2.996866
167.000000 0.000000 85.000000 2.240000 10485.544000 45.000000 2.000000 0.185764 0.981621 0.043732 -0.981856 0.181577 0.088931 0.083178 -0.061414 0.999378 2.378348 -0.065977 -2.312371 1.949175 0.559771 0.133828 0.000000 0.000000 0.000000 1.000000 0.190929 0.172507 0.340228 1.000000 0.615579 0.256672 1.000000 0.100837 1.000000 0.190929 0.172507 1.000000 0.214863 0.127674 1.000000 0.074834 0.086550 2.378096 -0.065677 -2.312419 1.949020 0.559738 0.133835 -0.344316 1.652190 -1.307874 -1.816292 -1.823389 -0.854572 2.418524 -0.066793 -2.351731 3.099332 0.890095 0.212824 -0.549309 2.263170 -1.713861 -1.624321 -2.659028 -1.498751 0.112709 -0.614050 2.643303 1.916544 -0.769036 -3.299630 -0.595266 -3.125860 0.656327 0.482557 1.383087 1.209316 3.299630 6.957500
168.000000 0.000000 111.000000 0.730000 22263.317000 46.000000 2.000000 -0.048037 0.084609 -0.995256 -0.980950 0.185833 0.061603 0.190737 0.979909 0.073772 0.439435 0.142625 -0.582060 0.229439 -0.162257 -0.766833 0.000000 0.000000 0.000000 1.000000 0.256465 0.102119 0.398730 1.000000 0.571514 0.345329 1.000000 0.174219 1.000000 0.256465 0.102119 1.000000 0.182218 0.183733 1.000000 0.016647 0.118666 0.439354 0.142864 -0.582218 0.229191 -0.162351 -0.766763 -0.035644 0.156598 -0.120954 0.567535 -0.379592 -0.675740 0.446823 0.145293 -0.592116 0.364459 -0.258171 -1.219306 -0.123851 0.375028 -0.251177 0.632850 -0.655452 -1.015981 -0.131088 0.079707 0.166491 0.377287 0.222424 -0.075155 -0.773135 -1.070714 -0.091336 0.904224 -0.302132 0.693428 1.070714 2.432204
169.000000 0.000000 108.000000 1.250000 18469.262000 47.000000 2.000000 0.190240 0.978955 0.073859 -0.979130 0.185392 0.060736 0.047271 -0.083850 0.993060 -1.304835 0.320714 0.984121 0.761412 -0.127058 0.146864 0.000000 0.000000 0.000000 1.000000 0.257041 0.100446 0.395693 1.000000 0.568046 0.346407 1.000000 0.175490 1.000000 0.257041 0.100446 1.000000 0.181852 0.183939 1.000000 0.017068 0.117096 -1.306015 0.321373 0.984642 0.762254 -0.127297 0.146967 0.136276 -0.407789 0.271512 1.072398 -0.345880 -0.780456 -1.328217 0.326836 1.001381 1.212137 -0.202428 0.233707 0.065296 -0.365564 0.300268 1.100613 -0.666234 -1.110179 -1.253166 -1.087885 -0.263461 -0.098179 1.350497 0.360791 1.541318 0.551612 -0.097331 -0.288152 -0.262612 -0.453433 1.541318 3.000872
170.000000 0.000000 109.000000 0.610000 18965.241000 48.000000 2.000000 0.189529 0.979081 0.074020 -0.979807 0.184597 0.059381 0.045767 -0.084503 0.992901 -1.217285 -0.027827 1.245112 0.744813 0.284902 0.286364 0.000000 0.000000 0.000000 1.000000 0.257449 0.097500 0.394864 1.000000 0.561175 0.348482 1.000000 0.177559 1.000000 0.257449 0.097500 1.000000 0.180657 0.183505 1.000000 0.020788 0.114520 -1.218543 -0.027692 1.246235 0.745732 0.285113 0.286626 -0.235995 0.134121 0.101875 1.267250 -0.230001 -0.733528 -1.239258 -0.028163 1.267421 1.185864 0.453387 0.455792 -0.336562 0.422515 -0.085953 1.360526 -0.466935 -1.082767 -0.793460 -1.163649 0.174794 -0.195395 1.321398 0.353144 1.693550 0.725297 -0.527938 -0.900091 -0.157749 -0.529902 1.693550 3.189530
171.000000 0.000000 112.000000 0.410000 22633.520000 49.000000 2.000000 0.189563 0.979036 0.074535 -0.980189 0.184408 0.059616 0.045777 -0.085050 0.993858 -0.765044 0.070274 0.694769 0.653535 0.257338 0.411751 0.000000 0.000000 0.000000 1.000000 0.256957 0.097705 0.398278 1.000000 0.562529 0.348486 1.000000 0.177511 1.000000 0.256957 0.097705 1.000000 0.179703 0.184509 1.000000 0.021503 0.114770 -0.766146 0.070401 0.695745 0.654542 0.257378 0.412032 -0.165115 0.234231 -0.069116 0.762221 -0.154619 -0.744378 -0.779171 0.071598 0.707573 1.040852 0.409283 0.655214 -0.286584 0.519416 -0.232832 0.824880 -0.311069 -1.120884 -0.605162 -0.939340 0.244691 -0.089488 0.764397 -0.085456 1.299377 0.449524 -0.159235 -0.694215 0.174943 -0.360037 1.299377 2.590350
172.000000 0.000000 112.000000 0.320000 25489.380000 50.000000 2.000000 0.045892 -0.085563 0.995275 -0.189784 -0.979563 -0.074878 0.981328 -0.184620 -0.059682 0.303454 -0.280619 -0.022835 0.461681 -0.715723 -0.290776 0.000000 0.000000 0.000000 1.000000 0.257357 0.097561 0.400812 1.000000 0.563797 0.348305 1.000000 0.177381 1.000000 0.257357 0.097561 1.000000 0.179265 0.185004 1.000000 0.021963 0.115103 0.303867 -0.280850 -0.023017 0.461711 -0.715674 -0.290612 -0.260285 0.467871 -0.207586 0.365946 -0.246027 -0.732376 0.309033 -0.285624 -0.023409 0.734212 -1.138065 -0.462132 -0.395819 0.789433 -0.393615 0.426437 -0.414018 -1.147160 -0.521586 0.407640 0.077896 1.007122 0.352687 -0.246795 -0.024642 -0.624124 0.168900 0.546229 -0.760327 -0.382998 1.007122 2.531783
173.000000 0.000000 104.000000 0.790000 16312.625000 51.000000 2.000000 0.189721 0.978879 0.076171 -0.981172 0.185033 0.058628 0.045617 -0.086032 0.995488 0.141264 -0.042734 -0.098531 1.155337 -0.132426 0.278150 0.000000 0.000000 0.000000 1.000000 0.260680 0.094712 0.404808 1.000000 0.564806 0.349322 1.000000 0.177871 1.000000 0.260680 0.094712 1.000000 0.177270 0.187290 1.000000 0.023062 0.114849 0.141085 -0.042766 -0.098319 1.155940 -0.132742 0.278720 -0.245445 0.254782 -0.009337 -0.074980 -0.817610 -0.842895 0.143484 -0.043493 -0.099990 1.838175 -0.211087 0.443220 -0.369497 0.372915 -0.003418 -0.056217 -1.287591 -1.355461 -0.760275 -0.587923 0.740589 0.912941 0.470090 -1.030774 0.831978 -0.668886 0.290185 -0.071703 0.117833 -0.244055 1.030774 3.302785
174.000000 0.000000 112.000000 0.470000 25070.864000 52.000000 2.000000 0.185948 0.979303 0.079925 -0.982092 0.181315 0.050723 0.036279 -0.088917 0.995162 -0.079270 -0.055658 0.134928 0.636710 0.396666 0.500855 0.000000 0.000000 0.000000 1.000000 0.265841 0.076484 0.406130 1.000000 0.530323 0.362748 1.000000 0.192825 1.000000 0.265841 0.076484 1.000000 0.167185 0.191073 1.000000 0.044348 0.098580 -0.079017 -0.055831 0.134848 0.637139 0.396987 0.501371 -0.278627 0.619695 -0.341068 0.214283 -0.182118 -0.678685 -0.080360 -0.056780 0.137140 1.013178 0.631288 0.797281 -0.410760 0.990273 -0.579513 0.283485 -0.294250 -1.079541 -0.165533 -0.680977 0.661724 0.146279 0.176934 -0.650322 0.827911 0.000655 -0.011401 -0.662378 0.504043 -0.146934 0.827911 2.494968
175.000000 0.000000 114.000000 0.440000 27549.236000 53.000000 2.000000 0.186081 0.979250 0.080276 -0.982207 0.181480 0.050607 0.036163 -0.089243 0.995356 0.038776 -0.073929 0.035153 0.671604 0.380005 0.496636 0.000000 0.000000 0.000000 1.000000 0.266552 0.076065 0.407541 1.000000 0.531004 0.363457 1.000000 0.193257 1.000000 0.266552 0.076065 1.000000 0.166849 0.191779 1.000000 0.044960 0.098523 0.038617 -0.074100 0.035483 0.671616 0.380047 0.497020 -0.293433 0.652420 -0.358987 0.112994 -0.231423 -0.678244 0.039274 -0.075359 0.036086 1.068003 0.604350 0.790360 -0.426439 1.017848 -0.591409 0.179670 -0.363084 -1.089438 -0.142487 -0.635937 0.729534 0.236084 0.112046 -0.759975 0.757372 -0.114649 0.030441 -0.614886 0.523891 -0.121436 0.759975 2.530692
176.000000 0.000000 119.000000 0.370000 30510.340000 54.000000 2.000000 0.186057 0.979232 0.080548 -0.982246 0.181586 0.050505 0.035995 -0.089451 0.995462 0.095448 -0.069652 -0.025796 0.660964 0.357267 0.435567 0.000000 0.000000 0.000000 1.000000 0.267058 0.075720 0.408372 1.000000 0.530863 0.364010 1.000000 0.193579 1.000000 0.267058 0.075720 1.000000 0.166377 0.192291 1.000000 0.045531 0.098301 0.095470 -0.069718 -0.025752 0.661324 0.357334 0.435751 -0.264503 0.629311 -0.364809 0.059616 -0.266919 -0.622812 0.097093 -0.070903 -0.026190 1.051637 0.568232 0.692931 -0.383931 0.971495 -0.587564 0.126095 -0.415250 -1.004988 -0.128765 -0.592725 0.729893 0.265933 0.096111 -0.762547 0.661887 -0.196771 0.032654 -0.533122 0.496614 -0.069163 0.762547 2.397844
177.000000 0.000000 119.000000 0.320000 31585.802000 55.000000 2.000000 0.186154 0.979200 0.080709 -0.982325 0.181662 0.050567 0.035976 -0.089641 0.995580 0.171779 -0.088287 -0.083492 0.639583 0.363433 0.449249 0.000000 0.000000 0.000000 1.000000 0.267214 0.075771 0.409213 1.000000 0.531435 0.364355 1.000000 0.193747 1.000000 0.267214 0.075771 1.000000 0.166242 0.192664 1.000000 0.045800 0.098359 0.171780 -0.088276 -0.083504 0.640004 0.363953 0.449775 -0.283387 0.664859 -0.381472 -0.003866 -0.252436 -0.607314 0.174700 -0.089776 -0.084923 1.017735 0.578758 0.715232 -0.405164 1.010953 -0.605789 0.060410 -0.385841 -0.987974 -0.071239 -0.543794 0.759738 0.287183 0.017506 -0.813472 0.601490 -0.229487 0.053734 -0.530251 0.526288 -0.057696 0.813472 2.390731
178.000000 0.000000 119.000000 0.320000 29061.033000 56.000000 2.000000 0.186242 0.979164 0.080937 -0.982599 0.181831 0.050525 0.035814 -0.089938 0.995954 0.401532 -0.155273 -0.246259 0.610495 0.392122 0.434540 0.000000 0.000000 0.000000 1.000000 0.267785 0.075546 0.410536 1.000000 0.531716 0.364706 1.000000 0.194206 1.000000 0.267785 0.075546 1.000000 0.166001 0.193078 1.000000 0.046478 0.098182 0.402159 -0.155844 -0.246315 0.610738 0.392250 0.434741 -0.332817 0.774240 -0.441423 -0.174866 -0.267451 -0.533444 0.408996 -0.158494 -0.250502 0.971195 0.623755 0.691325 -0.450845 1.131339 -0.680494 -0.108260 -0.390163 -0.894828 0.089835 -0.419459 0.882813 0.373518 -0.154982 -0.947960 0.409482 -0.383496 0.065147 -0.499317 0.574442 0.009977 0.947960 2.411096
179.000000 0.000000 115.000000 0.360000 24367.713000 57.000000 2.000000 0.186238 0.979188 0.080656 -0.982528 0.182041 0.050643 0.035859 -0.089706 0.995829 0.345319 -0.186121 -0.159198 0.564319 0.419901 0.323363 0.000000 0.000000 0.000000 1.000000 0.267956 0.075905 0.409437 1.000000 0.531391 0.364289 1.000000 0.194136 1.000000 0.267956 0.075905 1.000000 0.166460 0.192554 1.000000 0.046077 0.098159 0.345743 -0.186650 -0.159093 0.564566 0.420515 0.323643 -0.320403 0.751618 -0.431215 -0.085488 -0.280415 -0.421248 0.351621 -0.189823 -0.161797 0.897773 0.668703 0.514658 -0.413053 1.100510 -0.687456 -0.004482 -0.414261 -0.715654 0.127526 -0.418468 0.860555 0.314561 -0.053196 -0.786225 0.367020 -0.366008 -0.074330 -0.494547 0.471664 0.051447 0.860555 2.198380
180.000000 0.000000 117.000000 0.370000 23249.884000 58.000000 2.000000 0.186344 0.979177 0.080554 -0.982471 0.182054 0.050741 0.036061 -0.089538 0.995932 0.360465 -0.122629 -0.237837 0.596411 0.363618 0.363883 0.000000 0.000000 0.000000 1.000000 0.267800 0.076147 0.409391 1.000000 0.532221 0.363689 1.000000 0.193877 1.000000 0.267800 0.076147 1.000000 0.166814 0.192390 1.000000 0.045477 0.098474 0.360537 -0.122400 -0.238137 0.596523 0.363745 0.363631 -0.275841 0.702690 -0.426849 -0.152447 -0.291000 -0.487098 0.366667 -0.124481 -0.242186 0.948591 0.578428 0.578246 -0.377938 1.030991 -0.653052 -0.085367 -0.431640 -0.814456 0.049392 -0.422893 0.823913 0.351629 -0.097370 -0.871891 0.374765 -0.399756 0.047979 -0.424157 0.520263 0.048127 0.871891 2.240358
181.000000 0.000000 112.000000 0.470000 18386.242000 59.000000 2.000000 0.186414 0.979163 0.080562 -0.982566 0.182146 0.050724 0.036031 -0.089648 0.996178 0.481211 -0.110594 -0.370617 0.599131 0.404094 0.363282 0.000000 0.000000 0.000000 1.000000 0.268064 0.076081 0.409908 1.000000 0.532532 0.363612 1.000000 0.194054 1.000000 0.268064 0.076081 1.000000 0.166949 0.192373 1.000000 0.045665 0.098469 0.481357 -0.110707 -0.370650 0.599485 0.404362 0.363559 -0.260205 0.775469 -0.515264 -0.255705 -0.303862 -0.469832 0.489540 -0.112589 -0.376951 0.953302 0.643017 0.578131 -0.361834 1.126684 -0.764850 -0.182402 -0.443060 -0.794643 0.119145 -0.405876 0.897512 0.372491 -0.200580 -0.978948 0.271461 -0.506906 0.081436 -0.390606 0.606456 0.134415 0.978948 2.358197
182.000000 0.000000 110.000000 0.560000 14332.102000 60.000000 2.000000 0.186452 0.979159 0.080525 -0.982485 0.182309 0.050562 0.035909 -0.089457 0.996178 0.455016 -0.079356 -0.375659 0.608391 0.339785 0.302483 0.000000 0.000000 0.000000 1.000000 0.268657 0.075737 0.409447 1.000000 0.532234 0.363436 1.000000 0.194452 1.000000 0.268657 0.075737 1.000000 0.167192 0.192252 1.000000 0.045617 0.098167 0.454631 -0.079059 -0.375572 0.608721 0.339849 0.302736 -0.209869 0.683372 -0.473503 -0.257492 -0.347639 -0.447108 0.462360 -0.080403 -0.381957 0.967989 0.540427 0.481410 -0.298768 0.990567 -0.691799 -0.190632 -0.515563 -0.753130 0.047030 -0.394227 0.837390 0.396133 -0.146046 -0.936406 0.247024 -0.543336 0.099016 -0.294054 0.540273 0.147203 0.936406 2.220733
183.000000 0.000000 117.000000 0.560000 36242.041000 0.000000 3.000000 -0.697511 -0.487907 -0.524810 0.194669 -0.832354 0.517514 -0.688838 0.257479 0.673691 -1.138959 -0.404800 1.543759 -0.118372 -0.646880 0.635161 0.000000 0.000000 0.000000 0.006664 1.000000 0.478210 0.146267 0.874357 1.000000 1.000000 0.645028 0.261698 0.006664 1.000000 0.478210 0.766921 0.721899 1.000000 0.170538 0.011955 1.000000 -1.139111 -0.404696 1.543808 -0.118442 -0.646860 0.635561 -0.594244 0.905441 -0.311197 0.122796 -0.753996 -1.241070 -1.158476 -0.411576 1.570052 -0.188346 -1.028636 1.010669 -1.041661 1.439323 -0.397662 -0.026551 -0.902138 -1.277224 -0.647968 0.191910 -0.801752 0.038126 0.624421 0.778205 1.449629 1.603413 0.023546 -0.801661 -0.816332 -1.641539 1.641539 3.508538
184.000000 0.000000 110.000000 0.910000 19929.007000 1.000000 3.000000 -0.195307 0.833311 -0.517153 -0.697379 -0.488744 -0.525113 -0.689415 0.257071 0.675380 -0.256241 -0.732471 0.988712 -0.245768 0.204037 -0.245547 0.000000 0.000000 0.000000 0.007723 1.000000 0.482479 0.148075 0.869815 1.000000 1.000000 0.647163 0.262473 0.007723 1.000000 0.482479 0.770813 0.728716 1.000000 0.170333 0.012758 1.000000 -0.255795 -0.731817 0.987612 -0.245902 0.204190 -0.245373 -0.142639 0.406755 -0.264116 0.068291 -0.332678 -0.841092 -0.260143 -0.744258 1.004401 -0.391034 0.324703 -0.390192 -0.287352 0.647198 -0.359846 -0.033035 -0.338799 -0.891324 0.489837 0.224718 0.170560 -0.094559 0.515904 0.835182 0.197314 0.516592 -1.005742 -0.687151 -0.740622 -0.422032 1.005742 1.917652
185.000000 0.000000 118.000000 0.420000 36478.456000 2.000000 3.000000 -0.195185 0.833269 -0.517267 -0.697797 -0.487841 -0.525394 -0.689301 0.257046 0.674738 -0.430343 -0.904929 1.335273 -0.547701 0.146725 -0.732691 0.000000 0.000000 0.000000 0.007215 1.000000 0.479293 0.146986 0.868635 1.000000 1.000000 0.647087 0.262788 0.007215 1.000000 0.479293 0.770252 0.726298 1.000000 0.170719 0.013565 1.000000 -0.429601 -0.904178 1.333779 -0.547315 0.146325 -0.732317 -0.504836 0.902787 -0.397952 -0.005461 -0.761769 -1.026322 -0.436905 -0.919549 1.356453 -0.870341 0.232686 -1.164530 -0.906448 1.416290 -0.509842 -0.216346 -0.948581 -1.056236 0.647348 0.457360 -0.063283 -0.253270 0.852238 1.562868 -0.098597 0.612033 -1.499585 -0.548750 -1.309598 -0.358763 1.562868 3.289063
186.000000 0.000000 116.000000 0.340000 30764.681000 3.000000 3.000000 -0.195115 0.833320 -0.517212 -0.697307 -0.488331 -0.525195 -0.689832 0.256987 0.674885 -0.348555 -0.615784 0.964339 -0.543632 0.156280 -0.378721 0.000000 0.000000 0.000000 0.007256 1.000000 0.480874 0.148769 0.869545 1.000000 1.000000 0.645820 0.263362 0.007256 1.000000 0.480874 0.770216 0.728280 1.000000 0.169661 0.013676 1.000000 -0.348602 -0.615075 0.963677 -0.543147 0.155639 -0.378078 -0.434921 0.753518 -0.318597 0.126463 -0.398210 -0.756732 -0.354529 -0.625531 0.980060 -0.863712 0.247497 -0.601220 -0.776611 1.175561 -0.398951 0.043430 -0.440763 -0.799496 0.564285 0.362205 -0.140932 -0.343013 0.437681 1.142899 -0.053212 0.652005 -1.001967 -0.511073 -0.799886 -0.308992 1.142899 2.392154
187.000000 0.000000 110.000000 0.440000 20989.874000 4.000000 3.000000 -0.194792 0.833403 -0.517200 -0.697244 -0.488227 -0.525409 -0.689952 0.256902 0.674873 -0.325233 -0.609824 0.935057 -0.528495 0.273546 -0.334752 0.000000 0.000000 0.000000 0.007019 1.000000 0.480419 0.148836 0.868440 1.000000 1.000000 0.644369 0.264169 0.007019 1.000000 0.480419 0.770686 0.727233 1.000000 0.169210 0.014225 1.000000 -0.324980 -0.609221 0.934201 -0.528204 0.273184 -0.334718 -0.387307 0.759973 -0.372666 0.080158 -0.292827 -0.784230 -0.330505 -0.619578 0.950082 -0.839950 0.434417 -0.532269 -0.695070 1.189692 -0.494622 -0.022750 -0.279900 -0.851467 0.638272 0.283572 -0.047545 -0.402244 0.397187 1.083003 -0.037408 0.648408 -1.035459 -0.600863 -0.680759 -0.246163 1.083003 2.371978
188.000000 0.000000 107.000000 0.570000 13084.160000 5.000000 3.000000 -0.194441 0.833531 -0.517125 -0.697153 -0.488161 -0.525683 -0.690241 0.256691 0.674882 -0.258484 -0.591617 0.850102 -0.562871 0.415073 -0.251367 0.000000 0.000000 0.000000 0.006646 1.000000 0.480203 0.149226 0.866745 1.000000 1.000000 0.642613 0.265362 0.006646 1.000000 0.480203 0.771537 0.726609 1.000000 0.168528 0.015074 1.000000 -0.257946 -0.590912 0.848858 -0.562584 0.414848 -0.251109 -0.388524 0.790429 -0.401906 0.039107 -0.115518 -0.797678 -0.262332 -0.600957 0.863289 -0.894621 0.659692 -0.399314 -0.680412 1.248924 -0.568512 -0.066771 -0.017355 -0.897141 0.772789 0.234153 0.042334 -0.496302 0.257324 0.987779 -0.068714 0.661741 -1.030113 -0.704075 -0.491477 -0.165438 1.030113 2.438817
189.000000 0.000000 109.000000 0.390000 12404.463000 6.000000 3.000000 -0.193771 0.833522 -0.517391 -0.695717 -0.487861 -0.527978 -0.691919 0.256427 0.673094 -0.275050 -0.671169 0.946218 -0.451123 0.222030 -0.669044 0.000000 0.000000 0.000000 0.001721 1.000000 0.473189 0.154325 0.861834 1.000000 1.000000 0.636926 0.268110 0.001721 1.000000 0.473189 0.773492 0.731304 1.000000 0.164923 0.017535 1.000000 -0.274568 -0.670768 0.945336 -0.451048 0.221840 -0.668655 -0.434707 0.791996 -0.357290 -0.149039 -0.556858 -0.777817 -0.279236 -0.682171 0.961407 -0.717257 0.352771 -1.063294 -0.759834 1.254984 -0.495150 -0.376923 -0.700998 -0.819204 0.601335 0.313299 0.015697 -0.272339 0.647759 1.233397 -0.220417 0.365221 -1.249094 -0.380918 -0.961058 -0.092882 1.249094 2.740429
190.000000 0.000000 108.000000 0.370000 12450.294000 7.000000 3.000000 -0.193714 0.833496 -0.517454 -0.695400 -0.487994 -0.528095 -0.692219 0.256382 0.673013 -0.258932 -0.560891 0.819823 -0.421716 0.235067 -0.616361 0.000000 0.000000 0.000000 0.001330 1.000000 0.473164 0.155401 0.861687 1.000000 1.000000 0.636078 0.268313 0.001330 1.000000 0.473164 0.773439 0.732441 1.000000 0.164279 0.017736 1.000000 -0.258444 -0.560969 0.819413 -0.421488 0.234717 -0.616095 -0.395074 0.754412 -0.359337 -0.156429 -0.479228 -0.676369 -0.262837 -0.570506 0.833343 -0.670251 0.373247 -0.979714 -0.693124 1.191138 -0.498014 -0.374080 -0.600757 -0.720021 0.551611 0.246856 0.004354 -0.300401 0.573852 1.121109 -0.226082 0.321176 -1.125463 -0.325530 -0.820708 -0.020775 1.125463 2.505733
191.000000 0.000000 109.000000 0.370000 12080.945000 8.000000 3.000000 -0.193776 0.833373 -0.517630 -0.695249 -0.488299 -0.527966 -0.692411 0.256485 0.672839 -0.252949 -0.530833 0.783782 -0.461086 0.182234 -0.539630 0.000000 0.000000 0.000000 0.001046 1.000000 0.473433 0.156066 0.863625 1.000000 1.000000 0.635816 0.267852 0.001046 1.000000 0.473433 0.772343 0.732948 1.000000 0.163992 0.017252 1.000000 -0.252947 -0.530390 0.783337 -0.461112 0.181544 -0.539072 -0.428823 0.737096 -0.308273 -0.077736 -0.439631 -0.636556 -0.257248 -0.539406 0.796654 -0.733261 0.288691 -0.857232 -0.745611 1.162673 -0.417062 -0.244544 -0.544585 -0.674196 0.532401 0.296686 -0.066304 -0.302019 0.480865 1.079569 -0.219063 0.379642 -1.013266 -0.313338 -0.777550 -0.077623 1.079569 2.356963
192.000000 0.000000 107.000000 0.530000 11028.514000 9.000000 3.000000 -0.193739 0.833341 -0.517694 -0.695196 -0.488184 -0.528012 -0.692368 0.256560 0.672844 -0.278017 -0.487462 0.765480 -0.407827 0.194646 -0.606097 0.000000 0.000000 0.000000 0.001109 1.000000 0.473010 0.156065 0.863376 1.000000 1.000000 0.635647 0.267694 0.001109 1.000000 0.473010 0.772213 0.732776 1.000000 0.163963 0.017252 1.000000 -0.277620 -0.487367 0.764987 -0.407399 0.194223 -0.605645 -0.380629 0.735321 -0.354692 -0.136954 -0.483559 -0.601770 -0.282340 -0.495652 0.777992 -0.647847 0.308853 -0.963096 -0.675240 1.152723 -0.477483 -0.342022 -0.616025 -0.636519 0.477655 0.225478 -0.051309 -0.303487 0.561579 1.090543 -0.224786 0.304179 -1.039234 -0.252869 -0.787056 -0.000692 1.090543 2.392475
193.000000 0.000000 96.000000 1.160000 7808.800000 10.000000 3.000000 -0.193964 0.833330 -0.517627 -0.694124 -0.488626 -0.526916 -0.691348 0.258145 0.669885 -1.413186 -0.516454 1.929640 -0.389339 -1.242392 -0.096635 0.000000 0.000000 0.000000 0.000230 1.000000 0.467921 0.156534 0.880657 1.000000 1.000000 0.637955 0.267696 0.000230 1.000000 0.467921 0.766833 0.732669 1.000000 0.164340 0.014301 1.000000 -1.411758 -0.515995 1.927753 -0.388810 -1.241200 -0.096371 -0.104190 0.288259 -0.184069 1.446754 -1.465663 -0.619379 -1.435758 -0.524767 1.960525 -0.618286 -1.973757 -0.153249 -0.524956 0.244932 0.280024 1.847223 -1.900149 -0.402375 -0.925279 0.686287 -1.430107 0.181458 1.196676 1.701504 1.071549 1.576377 -0.271397 -0.146270 -1.882963 -1.757835 1.882963 4.709044
194.000000 0.000000 23.000000 9.010000 7453.563000 11.000000 3.000000 0.167386 -0.393755 0.903847 -0.310910 0.860389 0.431614 -0.932134 -0.384068 0.035329 6.843994 -4.626049 -2.217945 12.336376 -13.336942 0.016908 0.000000 0.000000 0.000000 1.000000 0.315495 0.553025 1.000000 0.079669 0.700620 1.000000 0.056806 0.521585 1.000000 0.315495 0.553025 0.747029 0.088007 1.000000 0.845798 1.000000 0.064551 6.841365 -4.624075 -2.217290 12.331841 -13.331793 0.016836 10.121563 -7.543895 -2.577668 9.038890 13.647284 -3.925858 6.957668 -4.702684 -2.254984 19.610093 -21.200217 0.026773 17.324899 -9.985995 -7.338903 12.705993 20.861993 -6.948345 -11.900421 5.409484 4.111154 21.421059 4.233807 -11.777767 4.255668 -11.755907 7.666613 7.644753 -9.643292 -9.665152 21.421059 51.141286
195.000000 0.000000 115.000000 1.790000 22946.434000 12.000000 3.000000 -0.144264 -0.742511 -0.654114 0.787900 0.316256 -0.529860 0.600513 -0.591357 0.540250 0.624817 -0.154731 -0.470086 0.066271 0.463006 0.948764 0.000000 0.000000 0.000000 0.289849 1.000000 0.381159 1.000000 0.010215 0.196250 0.222755 1.000000 0.050806 0.289849 1.000000 0.381159 0.278777 0.718178 1.000000 0.126563 0.012606 1.000000 0.624799 -0.154554 -0.470245 0.066239 0.463321 0.948746 -0.481335 0.887780 -0.406445 0.255418 -0.125294 -0.873736 0.635421 -0.157182 -0.478239 0.105333 0.736773 1.508695 -0.620751 1.064929 -0.444178 0.380299 -0.114692 -1.463745 0.581363 -0.020210 0.667367 0.065794 -1.027570 -1.113574 0.204275 0.118270 0.446207 -0.785637 1.047780 -0.184065 1.113574 3.078318
196.000000 0.000000 118.000000 1.620000 26639.741000 13.000000 3.000000 -0.599909 0.590781 -0.539525 -0.786954 -0.315897 0.529433 0.144148 0.741827 0.653500 -0.411061 -0.103626 0.514688 0.897870 0.399425 0.084043 0.000000 0.000000 0.000000 0.289632 1.000000 0.381611 1.000000 0.010230 0.196313 0.222568 1.000000 0.050859 0.289632 1.000000 0.381611 0.278511 0.717907 1.000000 0.126514 0.012411 1.000000 -0.411699 -0.103572 0.515271 0.899093 0.399879 0.084518 -0.395178 0.762773 -0.367595 0.270401 -0.111894 -0.822243 -0.418698 -0.105333 0.524030 1.429738 0.635887 0.134401 -0.512862 0.927200 -0.414338 0.406718 -0.095135 -1.369453 -0.452019 -0.971219 0.715357 0.196158 0.913686 -0.253690 1.023424 -0.143952 -0.461667 -0.571405 0.057532 -0.052205 1.023424 2.844506
197.000000 0.000000 119.000000 1.350000 30118.460000 14.000000 3.000000 -0.599942 0.590814 -0.539452 -0.786861 -0.315699 0.529486 0.144069 0.741848 0.653502 -0.445004 -0.030201 0.475204 0.772130 0.336175 0.040696 0.000000 0.000000 0.000000 0.289885 1.000000 0.382305 1.000000 0.010213 0.196207 0.222398 1.000000 0.050708 0.289885 1.000000 0.382305 0.278508 0.717294 1.000000 0.126364 0.012420 1.000000 -0.445652 -0.030165 0.475817 0.773138 0.336593 0.040907 -0.364258 0.685184 -0.320925 0.250713 -0.175207 -0.692487 -0.453228 -0.030678 0.483905 1.229445 0.535250 0.065051 -0.482273 0.825738 -0.343464 0.371746 -0.166319 -1.157783 -0.455909 -0.892939 0.547928 0.110898 0.857945 -0.145893 0.911059 -0.092779 -0.402036 -0.455150 0.034994 -0.018120 0.911059 2.463241
198.000000 0.000000 121.000000 1.180000 31102.342000 15.000000 3.000000 -0.599927 0.590831 -0.539451 -0.786870 -0.315512 0.529431 0.143985 0.741927 0.653447 -0.468573 0.027719 0.440855 0.715610 0.265245 -0.023568 0.000000 0.000000 0.000000 0.290269 1.000000 0.382695 1.000000 0.009991 0.196176 0.222433 1.000000 0.050596 0.290269 1.000000 0.382695 0.278603 0.717048 1.000000 0.126127 0.012626 1.000000 -0.469514 0.027565 0.441949 0.716284 0.265276 -0.023747 -0.373442 0.624645 -0.251203 0.277572 -0.225792 -0.606514 -0.477496 0.028033 0.449462 1.139034 0.421843 -0.037763 -0.512071 0.748275 -0.236204 0.411794 -0.224333 -1.016522 -0.499174 -0.843607 0.430844 0.086411 0.858854 -0.071163 0.828021 -0.101996 -0.359681 -0.328848 -0.015248 0.015585 0.858854 2.253117
199.000000 0.000000 116.000000 0.540000 40239.430000 16.000000 3.000000 -0.599887 0.590834 -0.539492 -0.787078 -0.315633 0.529705 0.143706 0.741958 0.653656 -0.312852 -0.164316 0.477168 0.524994 0.237981 0.050578 0.000000 0.000000 0.000000 0.289794 1.000000 0.382689 1.000000 0.010445 0.195511 0.222762 1.000000 0.050500 0.289794 1.000000 0.382689 0.278562 0.716358 1.000000 0.126098 0.013284 1.000000 -0.313609 -0.164398 0.478007 0.525614 0.238195 0.050494 -0.317220 0.617584 -0.300365 0.158545 -0.050114 -0.445773 -0.318941 -0.167192 0.486133 0.835831 0.378778 0.080295 -0.387047 0.716881 -0.329835 0.236228 -0.040266 -0.766715 -0.248542 -0.557813 0.433911 0.124640 0.637116 -0.045337 0.702677 0.020224 -0.388574 -0.454135 -0.079303 -0.144864 0.702677 1.759148
200.000000 0.000000 115.000000 0.690000 38815.044000 17.000000 3.000000 -0.599875 0.590838 -0.539501 -0.787100 -0.315476 0.529668 0.143778 0.741978 0.653437 -0.369433 -0.169189 0.538622 0.570041 0.194874 -0.005009 0.000000 0.000000 0.000000 0.290076 1.000000 0.383066 1.000000 0.009991 0.195826 0.222800 1.000000 0.050383 0.290076 1.000000 0.383066 0.278933 0.716907 1.000000 0.125964 0.013261 1.000000 -0.370381 -0.169156 0.539537 0.570775 0.195322 -0.004773 -0.394404 0.676009 -0.281605 0.225899 -0.080235 -0.434758 -0.376677 -0.172032 0.548709 0.907646 0.310601 -0.007591 -0.497137 0.775669 -0.278531 0.340006 -0.074105 -0.756534 -0.327289 -0.580893 0.413801 0.160196 0.751431 0.010341 0.745233 0.004144 -0.424142 -0.417945 -0.170538 -0.164340 0.751431 1.862766
201.000000 0.000000 112.000000 0.670000 35496.491000 18.000000 3.000000 -0.599606 0.591041 -0.539577 -0.787046 -0.314961 0.529412 0.144284 0.741305 0.653723 -0.562532 -0.022497 0.585029 0.476932 0.553640 -0.051712 0.000000 0.000000 0.000000 0.291938 1.000000 0.384475 1.000000 0.011125 0.196160 0.223137 1.000000 0.050345 0.291938 1.000000 0.384475 0.277928 0.719408 1.000000 0.126453 0.012682 1.000000 -0.563324 -0.022422 0.585747 0.477107 0.554122 -0.051579 -0.457199 0.777131 -0.319933 -0.083838 -0.307230 -0.555636 -0.572901 -0.022804 0.595705 0.758695 0.881165 -0.082021 -0.610078 0.911074 -0.300996 -0.168023 -0.342364 -0.953272 -0.174578 -0.894046 0.444894 -0.274575 0.820302 0.200830 0.753332 0.133861 -0.645724 -0.578754 0.073744 0.140714 0.894046 2.258714
202.000000 0.000000 115.000000 0.780000 42011.280000 19.000000 3.000000 -0.599353 0.591184 -0.539700 -0.787197 -0.314690 0.529257 0.144829 0.741255 0.653447 -0.625124 -0.035976 0.661100 0.717790 0.626424 -0.063539 0.000000 0.000000 0.000000 0.292878 1.000000 0.385141 1.000000 0.010452 0.197333 0.223703 1.000000 0.050373 0.292878 1.000000 0.385141 0.278137 0.722941 1.000000 0.126445 0.012394 1.000000 -0.625481 -0.036349 0.661829 0.718817 0.626994 -0.063770 -0.566373 0.914619 -0.348247 0.011334 -0.325700 -0.763983 -0.636114 -0.036967 0.673080 1.143063 0.997047 -0.101408 -0.767034 1.087596 -0.320562 -0.020251 -0.358805 -1.293973 -0.304212 -1.118297 0.629095 -0.184990 1.042529 0.109222 0.959730 0.026423 -0.738318 -0.655519 0.075767 0.158566 1.118297 2.867316
203.000000 0.000000 114.000000 0.700000 31908.831000 20.000000 3.000000 -0.599112 0.591310 -0.539831 -0.787330 -0.314443 0.529428 0.144633 0.741400 0.653463 -0.556153 -0.084811 0.640964 0.520940 0.507307 0.018902 0.000000 0.000000 0.000000 0.293357 1.000000 0.386022 1.000000 0.010274 0.197126 0.224250 1.000000 0.050102 0.293357 1.000000 0.386022 0.278429 0.723295 1.000000 0.126102 0.013168 1.000000 -0.556821 -0.084822 0.641643 0.521660 0.508094 0.018589 -0.428526 0.832251 -0.403725 -0.025464 -0.246644 -0.560350 -0.566287 -0.086264 0.652551 0.829543 0.807971 0.029560 -0.544482 0.967724 -0.423242 -0.073367 -0.265058 -0.968052 -0.204776 -0.864481 0.472543 -0.187162 0.824180 0.146861 0.848316 0.170997 -0.619405 -0.643541 0.040301 0.016165 0.864481 2.270774
204.000000 0.000000 115.000000 0.740000 35361.353000 21.000000 3.000000 -0.598829 0.591497 -0.539940 -0.787674 -0.314013 0.529541 0.144599 0.741541 0.653033 -0.551599 -0.275465 0.827064 0.471812 0.285135 -0.011671 0.000000 0.000000 0.000000 0.294199 1.000000 0.387531 1.000000 0.009256 0.197522 0.225119 1.000000 0.049875 0.294199 1.000000 0.387531 0.279383 0.725157 1.000000 0.125656 0.014031 1.000000 -0.552357 -0.276004 0.828361 0.472753 0.285494 -0.011697 -0.520300 0.955682 -0.435382 0.111223 -0.134684 -0.348652 -0.561747 -0.280696 0.842443 0.751771 0.453992 -0.018600 -0.625663 1.060335 -0.434672 0.148663 -0.141053 -0.655206 -0.236306 -0.606989 0.377512 0.006829 0.887761 0.273942 0.872574 0.258755 -0.651455 -0.636268 -0.280772 -0.265585 0.887761 1.992720
205.000000 0.000000 113.000000 0.490000 26424.079000 22.000000 3.000000 -0.598490 0.591574 -0.540231 -0.787649 -0.313460 0.529358 0.144750 0.741468 0.653149 -0.633662 -0.067611 0.701273 0.342560 0.425733 0.005496 0.000000 0.000000 0.000000 0.295852 1.000000 0.388455 1.000000 0.009325 0.197788 0.225603 1.000000 0.049350 0.295852 1.000000 0.388455 0.279257 0.726851 1.000000 0.125322 0.014269 1.000000 -0.634262 -0.068109 0.702371 0.342660 0.425928 0.005466 -0.401636 0.837754 -0.436117 -0.060760 -0.296253 -0.361743 -0.645045 -0.069267 0.714311 0.544898 0.677310 0.008692 -0.492725 0.942823 -0.450098 -0.134514 -0.318427 -0.659293 -0.181003 -0.734024 0.263904 -0.289117 0.773860 0.328953 0.780957 0.336050 -0.592857 -0.599954 -0.039835 -0.046932 0.780957 1.914131
206.000000 0.000000 110.000000 1.060000 16482.562000 23.000000 3.000000 -0.598263 0.591703 -0.540342 -0.787790 -0.313060 0.529653 0.142196 0.739888 0.654408 -0.826674 -0.398939 1.225612 -1.484431 0.441653 0.061665 0.000000 0.000000 0.000000 0.297295 1.000000 0.390384 1.000000 0.014441 0.191521 0.226241 1.000000 0.048892 0.297295 1.000000 0.390384 0.278328 0.716608 1.000000 0.126115 0.017941 1.000000 -0.827620 -0.399052 1.226671 -1.486341 0.442019 0.062091 -0.202190 0.994937 -0.792747 -1.165771 -0.336529 1.131819 -0.841689 -0.405835 1.247525 -2.363579 0.702898 0.098738 -0.023789 0.901363 -0.877574 -1.898410 -0.421860 1.652738 1.073948 0.500034 -0.855907 -1.429821 -0.152319 1.777535 -0.071700 1.858154 -0.921629 -1.002248 -0.347715 -0.428334 1.858154 4.681362
207.000000 0.000000 103.000000 0.690000 13304.327000 24.000000 3.000000 -0.598294 0.591645 -0.540372 -0.788237 -0.313212 0.529950 0.144756 0.742249 0.652753 -0.293273 -0.426287 0.719560 0.329090 0.094368 0.041329 0.000000 0.000000 0.000000 0.295438 1.000000 0.389669 1.000000 0.007571 0.198522 0.226613 1.000000 0.048720 0.295438 1.000000 0.389669 0.280563 0.729192 1.000000 0.124271 0.015416 1.000000 -0.294272 -0.426507 0.720778 0.329061 0.094309 0.041545 -0.407403 0.784235 -0.376832 0.138799 0.088413 -0.155981 -0.299274 -0.433757 0.733032 0.523273 0.149970 0.066064 -0.444322 0.847242 -0.402919 0.212174 0.102389 -0.337490 -0.097498 -0.219948 0.329753 0.207303 0.608092 0.180841 0.662033 0.234782 -0.510594 -0.564535 -0.388144 -0.442085 0.662033 1.457594
208.000000 0.000000 97.000000 0.690000 9075.014000 25.000000 3.000000 -0.598032 0.591702 -0.540598 -0.788095 -0.312626 0.529348 0.145550 0.742044 0.652579 -0.548248 -0.067034 0.615282 0.625286 0.379607 -0.079485 0.000000 0.000000 0.000000 0.297570 1.000000 0.390237 1.000000 0.007078 0.200050 0.226814 1.000000 0.048518 0.297570 1.000000 0.390237 0.280298 0.733119 1.000000 0.124188 0.014500 1.000000 -0.548846 -0.067179 0.616025 0.625800 0.379554 -0.079668 -0.509782 0.800270 -0.290488 0.137275 -0.252638 -0.556446 -0.558176 -0.068321 0.626497 0.995147 0.603567 -0.126688 -0.681801 0.931139 -0.249338 0.186038 -0.271919 -0.958881 -0.359844 -0.852655 0.452689 -0.040121 0.941628 0.129094 0.838188 0.025654 -0.581783 -0.478343 -0.088973 0.014467 0.941628 2.274878
209.000000 0.000000 110.000000 0.560000 21948.168000 26.000000 3.000000 0.048617 -0.105183 0.993264 0.982758 -0.173998 -0.064845 0.180054 0.979009 0.094190 0.008254 -0.139672 0.131418 -0.247659 0.333443 -0.835644 0.000000 0.000000 0.000000 1.000000 0.233539 0.101624 0.466745 1.000000 0.564423 0.386938 1.000000 0.150817 1.000000 0.233539 0.101624 1.000000 0.123006 0.224280 1.000000 0.044659 0.128254 0.008085 -0.139887 0.131802 -0.248101 0.333439 -0.836007 -0.290252 0.621196 -0.330944 0.121157 -0.530076 -0.551960 0.008222 -0.142265 0.134043 -0.394530 0.530235 -1.329418 -0.386613 0.939201 -0.552589 0.223766 -0.830608 -0.902690 0.438970 0.006035 0.116838 -0.316097 0.433033 0.755165 -0.652432 -0.330300 -0.872003 0.213463 -0.439067 0.646398 0.872003 2.582610
210.000000 0.000000 108.000000 0.460000 21296.478000 27.000000 3.000000 0.179977 0.979193 0.093750 -0.982586 0.174321 0.065070 0.048829 -0.104793 0.992868 -0.125400 -0.173349 0.298750 0.821416 0.372020 0.024894 0.000000 0.000000 0.000000 1.000000 0.233646 0.102293 0.464337 1.000000 0.563794 0.386458 1.000000 0.150262 1.000000 0.233646 0.102293 1.000000 0.123535 0.223499 1.000000 0.043702 0.128447 -0.125281 -0.172933 0.298213 0.820852 0.371906 0.024940 -0.251335 0.510445 -0.259110 0.418735 -0.597439 -0.390253 -0.127410 -0.175873 0.303283 1.305319 0.591405 0.039660 -0.302078 0.808743 -0.506665 0.553352 -0.958237 -0.631930 -0.271670 -0.754550 0.794119 0.311239 0.692533 -0.373256 0.724915 -0.340873 -0.420864 -0.453246 0.062017 0.029635 0.794119 2.524736
211.000000 0.000000 110.000000 0.410000 24057.440000 28.000000 3.000000 0.180192 0.979156 0.093725 -0.982735 0.174157 0.065458 0.049264 -0.104771 0.993228 0.048132 -0.142880 0.094749 0.822237 0.310051 0.210181 0.000000 0.000000 0.000000 1.000000 0.232730 0.103103 0.465536 1.000000 0.565952 0.385607 1.000000 0.149624 1.000000 0.232730 0.103103 1.000000 0.123778 0.223571 1.000000 0.042881 0.129273 0.047924 -0.142691 0.094767 0.822592 0.310315 0.209961 -0.284268 0.559478 -0.275210 0.197061 -0.530878 -0.526696 0.048739 -0.145117 0.096378 1.308085 0.493463 0.333881 -0.374115 0.857244 -0.483129 0.299788 -0.838811 -0.857223 -0.253427 -0.656338 0.814620 0.411709 0.417166 -0.650881 0.689778 -0.378269 -0.163739 -0.436351 0.239171 -0.033441 0.814620 2.499458
212.000000 0.000000 111.000000 0.480000 22105.682000 29.000000 3.000000 0.180042 0.979208 0.093472 -0.982702 0.174112 0.065811 0.049586 -0.104746 0.993313 0.074669 -0.098687 0.024017 0.797166 0.397087 0.142962 0.000000 0.000000 0.000000 1.000000 0.232010 0.103948 0.465222 1.000000 0.566095 0.384892 1.000000 0.148688 1.000000 0.232010 0.103948 1.000000 0.123823 0.223078 1.000000 0.042281 0.129836 0.074734 -0.098732 0.023998 0.797219 0.396990 0.142725 -0.213838 0.610813 -0.396975 0.190243 -0.538661 -0.454897 0.076004 -0.100410 0.024406 1.267737 0.631294 0.226962 -0.286839 0.940638 -0.653799 0.314913 -0.849507 -0.739818 -0.187806 -0.703255 0.847297 0.331848 0.403830 -0.631273 0.589143 -0.445959 -0.216024 -0.401338 0.299426 0.114112 0.847297 2.489234
213.000000 0.000000 113.000000 0.460000 18391.416000 30.000000 3.000000 0.179681 0.979268 0.093536 -0.982833 0.173783 0.066709 0.049658 -0.104752 0.993324 0.124007 -0.181643 0.057635 0.373154 0.373005 0.088422 0.000000 0.000000 0.000000 1.000000 0.229925 0.105856 0.465578 1.000000 0.565071 0.384724 1.000000 0.147928 1.000000 0.229925 0.105856 1.000000 0.122721 0.223381 1.000000 0.042258 0.129901 0.123833 -0.181676 0.057843 0.372831 0.373081 0.088520 -0.232192 0.530180 -0.297987 0.136164 -0.232539 -0.165398 0.125939 -0.184764 0.058826 0.592875 0.593274 0.140765 -0.271079 0.789344 -0.518265 0.232164 -0.357910 -0.292313 0.127007 -0.357399 0.611087 0.126681 0.157175 -0.326906 0.272109 -0.211972 -0.284181 -0.399116 0.200225 0.085291 0.611087 1.500019
214.000000 0.000000 112.000000 0.370000 20448.728000 31.000000 3.000000 0.179909 0.979185 0.093965 -0.983006 0.173523 0.066897 0.050133 -0.105137 0.993866 0.370153 -0.072211 -0.297942 0.518017 0.270607 0.327287 0.000000 0.000000 0.000000 1.000000 0.229305 0.106047 0.468688 1.000000 0.568143 0.384555 1.000000 0.147147 1.000000 0.229305 0.106047 1.000000 0.122245 0.224292 1.000000 0.041912 0.131004 0.370257 -0.072423 -0.297833 0.518114 0.270267 0.327256 -0.220208 0.588706 -0.368498 -0.195957 -0.268583 -0.433750 0.376551 -0.073654 -0.302897 0.823906 0.429778 0.520403 -0.316495 0.851036 -0.534541 -0.137280 -0.396397 -0.723029 0.022894 -0.328019 0.695610 0.344697 -0.153479 -0.826195 0.271428 -0.401288 0.130585 -0.294322 0.481498 0.056591 0.826195 1.939456
215.000000 0.000000 110.000000 0.370000 19683.130000 32.000000 3.000000 -0.180052 -0.979155 -0.094005 0.983026 -0.173584 -0.066689 0.050123 -0.105243 0.993729 0.333864 -0.125300 -0.208563 -0.633902 -0.304611 0.380895 0.000000 0.000000 0.000000 1.000000 0.229777 0.105599 0.468742 1.000000 0.568621 0.384994 1.000000 0.147353 1.000000 0.229777 0.105599 1.000000 0.122463 0.224388 1.000000 0.042045 0.131060 0.333849 -0.124889 -0.208960 -0.633980 -0.304637 0.380565 -0.301391 0.660025 -0.358634 -0.120078 -0.326279 -0.525835 0.339525 -0.127012 -0.212513 -1.008155 -0.484434 0.605175 -0.416022 0.963217 -0.547195 -0.049917 -0.490588 -0.873078 0.404271 0.799810 -0.418884 -0.023346 -0.884008 -0.060852 -0.389884 0.433271 0.479736 -0.014387 0.084198 -0.409925 0.884008 2.262018
216.000000 0.000000 102.000000 0.410000 16902.713000 33.000000 3.000000 0.179824 0.979180 0.094178 -0.982770 0.173394 0.066682 0.050226 -0.105491 0.993359 0.127017 -0.046713 -0.080305 0.706055 0.355830 0.331248 0.000000 0.000000 0.000000 1.000000 0.229407 0.105570 0.468825 1.000000 0.568305 0.385771 1.000000 0.146705 1.000000 0.229407 0.105570 1.000000 0.121734 0.224750 1.000000 0.042204 0.131370 0.127057 -0.046973 -0.080084 0.706059 0.355458 0.331246 -0.221391 0.612526 -0.391135 0.066162 -0.375136 -0.559711 0.129217 -0.047772 -0.081445 1.122775 0.565249 0.526747 -0.328287 0.941231 -0.612944 0.159026 -0.585800 -0.904021 -0.155354 -0.616878 0.761388 0.299864 0.157325 -0.759417 0.587412 -0.329330 -0.001971 -0.432058 0.459553 0.029466 0.761388 2.368797
217.000000 0.000000 91.000000 0.520000 9544.172000 34.000000 3.000000 0.179270 0.979278 0.094220 -0.982540 0.173543 0.066062 0.049821 -0.105388 0.992936 -0.104070 -0.036570 0.140640 0.823265 0.359186 -0.015054 0.000000 0.000000 0.000000 1.000000 0.230599 0.104271 0.466921 1.000000 0.564815 0.386309 1.000000 0.146768 1.000000 0.230599 0.104271 1.000000 0.120941 0.224505 1.000000 0.042849 0.130487 -0.104346 -0.036079 0.140425 0.823027 0.359306 -0.015040 -0.106709 0.456502 -0.349794 0.337428 -0.623009 -0.386768 -0.106120 -0.036692 0.142812 1.308778 0.571368 -0.023916 -0.148000 0.740893 -0.592893 0.472160 -0.998793 -0.612159 -0.329390 -0.795910 0.739223 0.272703 0.645696 -0.422916 0.626169 -0.442444 -0.316306 -0.296779 0.150214 0.169741 0.795910 2.483809
218.000000 0.000000 88.000000 0.840000 11620.462000 35.000000 3.000000 0.182068 0.981815 0.053769 -0.077134 0.068564 -0.994215 -0.980105 0.178139 0.086220 -0.186042 0.258919 -0.072876 -1.046997 -0.545256 0.093606 0.000000 0.000000 0.000000 1.000000 0.191590 0.163192 0.356277 1.000000 0.596209 0.281356 1.000000 0.103898 1.000000 0.191590 0.163192 1.000000 0.190744 0.147307 1.000000 0.054221 0.102145 -0.186056 0.259026 -0.072971 -1.046765 -0.545193 0.093431 -0.035884 -0.043334 0.079218 0.397359 -1.118550 -0.203550 -0.189218 0.263430 -0.074211 -1.664566 -0.866966 0.148574 -0.014136 -0.052620 0.066755 0.511745 -1.797242 -0.322745 0.140826 0.848701 -1.218287 -0.510411 -0.693260 0.665852 -0.571949 0.787163 0.552434 0.431124 -0.155441 -0.276751 1.218287 3.286261
219.000000 0.000000 99.000000 0.770000 14755.208000 36.000000 3.000000 0.183380 0.981588 0.053445 -0.980473 0.177553 0.087171 0.077402 -0.068974 0.995271 0.294083 0.068556 -0.362639 0.688405 0.159519 0.427962 0.000000 0.000000 0.000000 1.000000 0.189026 0.165143 0.359633 1.000000 0.602508 0.280791 1.000000 0.105377 1.000000 0.189026 0.165143 1.000000 0.193418 0.147287 1.000000 0.054208 0.102973 0.293857 0.068684 -0.362540 0.688113 0.159288 0.428222 -0.179484 0.492199 -0.312714 -0.238428 -0.337248 -0.660895 0.298852 0.069851 -0.368704 1.094238 0.253299 0.680958 -0.327608 0.748488 -0.420879 -0.202381 -0.506979 -1.058277 -0.249822 -0.456640 0.643619 0.436801 -0.103808 -0.997249 0.452192 -0.441249 0.353630 -0.202370 0.560448 0.004448 0.997249 2.349651
220.000000 0.000000 97.000000 0.760000 15548.315000 37.000000 3.000000 0.183686 0.981544 0.053213 -0.980571 0.177648 0.087012 0.077279 -0.068794 0.995430 0.372306 0.047592 -0.419898 0.690625 0.180225 0.558521 0.000000 0.000000 0.000000 1.000000 0.189418 0.164876 0.359258 1.000000 0.602989 0.280415 1.000000 0.106144 1.000000 0.189418 0.164876 1.000000 0.194474 0.146826 1.000000 0.054222 0.102647 0.371998 0.048126 -0.420124 0.690834 0.180213 0.558720 -0.243367 0.579314 -0.335947 -0.315225 -0.275712 -0.742475 0.378322 0.048945 -0.427266 1.098565 0.286575 0.888476 -0.419179 0.871176 -0.451997 -0.288194 -0.401731 -1.195189 -0.197026 -0.431013 0.699949 0.465961 -0.243112 -1.140086 0.482326 -0.414648 0.440138 -0.285300 0.674125 -0.051313 1.140086 2.593685
221.000000 0.000000 90.000000 0.850000 10709.558000 38.000000 3.000000 0.183118 0.981662 0.052985 -0.980425 0.176965 0.087918 0.077699 -0.068658 0.995795 0.439743 0.299109 -0.738852 0.388959 0.203924 0.577559 0.000000 0.000000 0.000000 1.000000 0.186448 0.166783 0.359568 1.000000 0.602381 0.279158 1.000000 0.104620 1.000000 0.186448 0.166783 1.000000 0.193593 0.146429 1.000000 0.055074 0.102401 0.439415 0.299260 -0.738675 0.388928 0.204302 0.577655 0.038122 0.479941 -0.518063 -0.533707 -0.038683 -0.635923 0.446885 0.304348 -0.751232 0.618473 0.324880 0.918587 -0.109993 0.746828 -0.636835 -0.530027 -0.015670 -0.995652 -0.061668 -0.326932 0.443313 0.178049 -0.611650 -1.116631 0.138373 -0.366608 0.673318 -0.076705 0.938582 0.188559 1.116631 2.297956
222.000000 0.000000 96.000000 1.240000 12363.163000 39.000000 3.000000 0.183124 0.981700 0.052250 -0.980721 0.177239 0.087570 0.077912 -0.068186 0.995342 0.386559 -0.060775 -0.325783 0.665255 0.331969 0.511271 0.000000 0.000000 0.000000 1.000000 0.187210 0.166427 0.356575 1.000000 0.601376 0.278322 1.000000 0.104281 1.000000 0.187210 0.166427 1.000000 0.194919 0.144799 1.000000 0.056038 0.101413 0.386921 -0.060883 -0.326038 0.665280 0.332218 0.511232 -0.322318 0.736749 -0.414431 -0.229198 -0.267455 -0.641013 0.393499 -0.061918 -0.331581 1.057929 0.528293 0.812961 -0.485249 1.100214 -0.614965 -0.173402 -0.388160 -1.049155 -0.030300 -0.461649 0.833495 0.402146 -0.196005 -1.059800 0.467775 -0.396020 0.226305 -0.437475 0.657654 -0.006126 1.059800 2.565261
223.000000 0.000000 98.000000 0.680000 14355.485000 40.000000 3.000000 0.183881 0.981992 0.043343 -0.980075 0.179101 0.091273 0.083083 -0.060631 0.995292 0.356374 -0.120281 -0.236094 0.720700 0.561085 0.193434 0.000000 0.000000 0.000000 1.000000 0.181039 0.178091 0.333269 1.000000 0.607347 0.259110 1.000000 0.097995 1.000000 0.181039 0.178091 1.000000 0.211440 0.127728 1.000000 0.075508 0.085473 0.356792 -0.120435 -0.236357 0.720480 0.561029 0.193313 -0.274764 0.876689 -0.601925 -0.060029 -0.461700 -0.387407 0.362858 -0.122483 -0.240375 1.145708 0.892149 0.307407 -0.376659 1.319718 -0.943059 0.063646 -0.699788 -0.651998 0.094624 -0.633812 1.030091 0.301654 0.095966 -0.839500 0.346963 -0.588504 -0.190591 -0.441587 0.537846 0.286849 1.030091 2.629810
224.000000 0.000000 102.000000 0.640000 19200.240000 41.000000 3.000000 0.184274 0.981913 0.043484 -0.980257 0.179294 0.091065 0.082915 -0.060399 0.995725 0.555219 -0.115272 -0.439947 0.713715 0.364877 0.312994 0.000000 0.000000 0.000000 1.000000 0.181868 0.177534 0.333956 1.000000 0.608396 0.258726 1.000000 0.098968 1.000000 0.181868 0.177534 1.000000 0.211981 0.128021 1.000000 0.075493 0.085048 0.554641 -0.115151 -0.439490 0.713844 0.364411 0.312551 -0.311998 0.778906 -0.466907 -0.321579 -0.441655 -0.487426 0.564070 -0.117109 -0.446961 1.135155 0.579487 0.497019 -0.441819 1.136039 -0.694221 -0.244037 -0.647858 -0.821037 0.051239 -0.421910 0.978090 0.504941 -0.152233 -1.079084 0.253581 -0.673270 0.100994 -0.304820 0.574143 0.168329 1.079084 2.532138
225.000000 0.000000 102.000000 0.630000 19027.868000 42.000000 3.000000 0.184561 0.981866 0.043315 -0.980157 0.179556 0.090817 0.082623 -0.060219 0.995675 0.502514 -0.094638 -0.407877 0.684245 0.374732 0.332663 0.000000 0.000000 0.000000 1.000000 0.182743 0.177110 0.333239 1.000000 0.608380 0.258744 1.000000 0.099998 1.000000 0.182743 0.177110 1.000000 0.212980 0.127691 1.000000 0.075229 0.084732 0.502402 -0.094644 -0.407758 0.684333 0.374945 0.332660 -0.295728 0.767987 -0.472259 -0.286819 -0.396887 -0.493402 0.510943 -0.096253 -0.414689 1.088226 0.596237 0.528995 -0.426376 1.130171 -0.703795 -0.211252 -0.581656 -0.824962 0.047033 -0.439792 0.935566 0.448741 -0.149583 -1.038116 0.282340 -0.606193 0.102550 -0.329373 0.589375 0.157452 1.038116 2.474299
226.000000 0.000000 100.000000 0.630000 19110.999000 43.000000 3.000000 0.184755 0.981826 0.043390 -0.980143 0.179475 0.090821 0.082524 -0.060145 0.995864 0.551594 -0.017797 -0.533797 0.615202 0.297368 0.465877 0.000000 0.000000 0.000000 1.000000 0.182620 0.177045 0.333734 1.000000 0.609015 0.258643 1.000000 0.100508 1.000000 0.182620 0.177045 1.000000 0.213234 0.127898 1.000000 0.075139 0.084632 0.551732 -0.017950 -0.533782 0.615551 0.297262 0.466023 -0.260460 0.709350 -0.448890 -0.420864 -0.283649 -0.579162 0.561111 -0.018255 -0.542856 0.978849 0.472705 0.741070 -0.412928 1.043468 -0.630540 -0.376500 -0.395669 -0.953391 0.029893 -0.356069 0.829120 0.443158 -0.353620 -1.152847 0.251461 -0.547766 0.323727 -0.281354 0.709690 0.104608 1.152847 2.471266
227.000000 0.000000 99.000000 0.840000 16782.849000 44.000000 3.000000 0.185034 0.981748 0.043966 -0.981160 0.179992 0.090260 0.082552 -0.060691 0.997688 1.510642 -0.093709 -1.416933 0.927755 0.221742 0.435165 0.000000 0.000000 0.000000 1.000000 0.185148 0.175356 0.337836 1.000000 0.611005 0.257886 1.000000 0.100880 1.000000 0.185148 0.175356 1.000000 0.212717 0.128692 1.000000 0.074421 0.085597 1.510659 -0.093818 -1.416842 0.927694 0.221507 0.435414 -0.348313 0.974193 -0.625880 -1.261344 -0.722060 -0.636416 1.536341 -0.095413 -1.440928 1.475219 0.352240 0.692395 -0.526183 1.309049 -0.782866 -1.216842 -0.997070 -1.107285 0.207706 -0.079896 1.412218 1.124615 -0.895878 -2.100389 -0.330540 -1.535051 0.688172 0.122834 0.975775 0.410437 2.100389 3.873996
228.000000 0.000000 77.000000 3.540000 8421.965000 45.000000 3.000000 0.186608 0.981345 0.046257 -0.984921 0.182761 0.088209 0.084425 -0.063886 1.005570 5.523211 -0.038901 -5.484310 2.980173 0.209401 0.180302 0.000000 0.000000 0.000000 1.000000 0.196674 0.169038 0.357537 1.000000 0.626860 0.254503 1.000000 0.099613 1.000000 0.196674 0.169038 1.000000 0.211447 0.131950 1.000000 0.073809 0.090807 5.522156 -0.038667 -5.483490 2.980020 0.209015 0.180381 -0.430094 2.410066 -1.979972 -4.741124 -3.208884 -1.227557 5.616033 -0.039324 -5.576709 4.738828 0.332376 0.286843 -0.750629 2.995953 -2.245323 -4.576762 -4.540332 -2.262318 0.509863 0.238479 4.379100 4.107717 -2.751902 -6.621139 -2.517696 -6.386933 2.242039 2.007833 2.513423 2.279217 6.621139 12.724359
229.000000 0.000000 111.000000 1.210000 21786.840000 46.000000 3.000000 -0.980721 0.185605 0.061128 0.047865 -0.084137 0.994216 0.190624 0.980552 0.073309 0.170900 1.253640 -1.424540 0.245206 0.235729 0.894375 0.000000 0.000000 0.000000 1.000000 0.256157 0.101407 0.394254 1.000000 0.568904 0.346209 1.000000 0.174401 1.000000 0.256157 0.101407 1.000000 0.182972 0.182723 1.000000 0.016324 0.118120 0.170978 1.253140 -1.424118 0.245235 0.235873 0.894063 -0.052038 -0.001645 0.053683 1.374494 -0.341533 -0.848707 0.173884 1.274444 -1.448328 0.389973 0.375085 1.421738 -0.149068 0.274616 -0.125548 1.476549 -0.667161 -1.228070 -0.455380 -0.761635 -0.136968 -0.443223 -1.083482 -1.401893 0.077363 -0.241049 1.538861 0.378017 1.845117 0.684272 1.845117 3.545485
230.000000 0.000000 109.000000 1.280000 18597.916000 47.000000 3.000000 0.190048 0.978979 0.074036 -0.979159 0.185363 0.060042 0.047037 -0.083993 0.992552 -1.479776 0.165623 1.314154 1.021384 -0.098674 0.087814 0.000000 0.000000 0.000000 1.000000 0.258091 0.098925 0.394893 1.000000 0.566462 0.347442 1.000000 0.175622 1.000000 0.258091 0.098925 1.000000 0.181351 0.184064 1.000000 0.017692 0.116710 -1.481807 0.165608 1.316199 1.022919 -0.098613 0.087816 -0.020324 -0.351973 0.372297 1.356969 -0.563669 -0.866625 -1.506997 0.168423 1.338574 1.626645 -0.156815 0.139645 -0.094671 -0.272384 0.367055 1.416747 -1.024435 -1.253027 -1.412082 -1.284043 -0.083932 0.044107 1.768765 0.440615 1.882785 0.554634 -0.356683 -0.470703 -0.484722 -0.598742 1.882785 3.769215
231.000000 0.000000 109.000000 0.600000 20019.675000 48.000000 3.000000 0.189535 0.979046 0.074472 -0.980056 0.184799 0.059318 0.045762 -0.084786 0.993396 -0.951953 -0.040079 0.992032 0.798316 0.178553 0.205791 0.000000 0.000000 0.000000 1.000000 0.258216 0.097119 0.396810 1.000000 0.561853 0.348650 1.000000 0.177512 1.000000 0.258216 0.097119 1.000000 0.179846 0.184339 1.000000 0.021162 0.114615 -0.953270 -0.040094 0.993364 0.799543 0.178875 0.205991 -0.215842 0.109203 0.106639 1.011850 -0.370200 -0.682949 -0.969475 -0.040776 1.010251 1.271434 0.284448 0.327567 -0.302769 0.334422 -0.031652 1.091905 -0.667516 -1.022615 -0.782075 -1.014326 0.256046 0.023796 1.193552 0.155431 1.461009 0.422888 -0.411477 -0.678934 -0.179226 -0.446683 1.461009 2.890933
232.000000 0.000000 110.000000 0.500000 23455.638000 49.000000 3.000000 0.189564 0.979038 0.074495 -0.980022 0.184584 0.059503 0.045840 -0.084952 0.993656 -0.879857 0.093228 0.786628 0.741705 0.230222 0.315190 0.000000 0.000000 0.000000 1.000000 0.257490 0.097491 0.397697 1.000000 0.562553 0.348525 1.000000 0.177393 1.000000 0.257490 0.097491 1.000000 0.179835 0.184425 1.000000 0.021237 0.114851 -0.880938 0.093499 0.787439 0.742932 0.230845 0.315688 -0.119782 0.158767 -0.038985 0.873641 -0.264212 -0.744130 -0.895914 0.095089 0.800825 1.181411 0.367090 0.502007 -0.224964 0.423461 -0.198496 0.947507 -0.495438 -1.109557 -0.737020 -1.036748 0.227598 -0.072130 0.970056 0.005438 1.379943 0.415325 -0.233036 -0.642923 0.066691 -0.343195 1.379943 2.743543
233.000000 0.000000 115.000000 0.350000 27173.567000 50.000000 3.000000 0.189670 0.979001 0.074715 -0.980532 0.184604 0.059476 0.045820 -0.085338 0.994313 -0.483459 -0.012704 0.496163 0.772437 0.283298 0.403550 0.000000 0.000000 0.000000 1.000000 0.257745 0.097276 0.399649 1.000000 0.563333 0.348478 1.000000 0.177515 1.000000 0.257745 0.097276 1.000000 0.179565 0.184766 1.000000 0.021795 0.114958 -0.484095 -0.012571 0.496666 0.773857 0.283786 0.403945 -0.242743 0.392119 -0.149376 0.563710 -0.295581 -0.748677 -0.492324 -0.012785 0.505109 1.230587 0.451276 0.642354 -0.369773 0.706783 -0.337010 0.636026 -0.510162 -1.157469 -0.513923 -0.882389 0.490847 0.122381 0.647346 -0.357424 1.171825 0.167056 -0.133422 -0.657902 0.235043 -0.289436 1.171825 2.671771
234.000000 0.000000 110.000000 0.320000 20041.664000 51.000000 3.000000 0.189661 0.978990 0.074876 -0.980709 0.184779 0.059479 0.045704 -0.085613 0.994470 -0.356634 -0.091732 0.448366 0.746275 0.342950 0.326030 0.000000 0.000000 0.000000 1.000000 0.258224 0.097192 0.400432 1.000000 0.563237 0.348933 1.000000 0.177697 1.000000 0.258224 0.097192 1.000000 0.179231 0.185070 1.000000 0.022352 0.114853 -0.356777 -0.092026 0.448803 0.747265 0.343074 0.326638 -0.282623 0.481274 -0.198651 0.513049 -0.330170 -0.635355 -0.362842 -0.093590 0.456433 1.188301 0.545557 0.519420 -0.391903 0.812674 -0.420771 0.601106 -0.553021 -0.995571 -0.372321 -0.817766 0.597923 0.152478 0.607537 -0.362706 1.031642 0.061398 -0.235217 -0.659321 0.210229 -0.213876 1.031642 2.541964
235.000000 0.000000 107.000000 0.480000 23321.332000 52.000000 3.000000 0.185924 0.979304 0.079976 -0.982142 0.181426 0.050626 0.036214 -0.088959 0.995172 -0.054362 -0.094457 0.148819 0.661952 0.398089 0.441779 0.000000 0.000000 0.000000 1.000000 0.266258 0.076246 0.406166 1.000000 0.530076 0.362893 1.000000 0.192922 1.000000 0.266258 0.076246 1.000000 0.167075 0.191132 1.000000 0.044519 0.098469 -0.054289 -0.094653 0.148942 0.662838 0.398237 0.442340 -0.295569 0.628991 -0.333422 0.222436 -0.239897 -0.637610 -0.055212 -0.096262 0.151474 1.054044 0.633276 0.703409 -0.416735 0.993959 -0.577225 0.298826 -0.383199 -1.020254 -0.155019 -0.672087 0.705604 0.188536 0.227525 -0.633098 0.801856 -0.058767 -0.072506 -0.646837 0.444562 -0.129769 0.801856 2.464424
236.000000 0.000000 112.000000 0.440000 28183.617000 53.000000 3.000000 0.186092 0.979251 0.080233 -0.982172 0.181573 0.050504 0.036045 -0.089173 0.995273 0.000444 -0.090260 0.089815 0.663282 0.380796 0.457928 0.000000 0.000000 0.000000 1.000000 0.266897 0.075861 0.407120 1.000000 0.530613 0.363545 1.000000 0.193568 1.000000 0.266897 0.075861 1.000000 0.167001 0.191672 1.000000 0.045072 0.098277 0.000252 -0.090143 0.089892 0.664326 0.381341 0.458785 -0.295649 0.634220 -0.338571 0.161822 -0.241642 -0.647010 0.000256 -0.091676 0.091420 1.056411 0.606408 0.729560 -0.420383 0.993149 -0.572767 0.232570 -0.381864 -1.038701 -0.146182 -0.641312 0.716374 0.221244 0.170654 -0.691902 0.766337 -0.096219 -0.024472 -0.620155 0.470658 -0.125025 0.766337 2.464369
237.000000 0.000000 118.000000 0.420000 31832.936000 54.000000 3.000000 0.186109 0.979222 0.080545 -0.982205 0.181641 0.050476 0.035929 -0.089432 0.995502 0.096618 -0.036558 -0.060060 0.641252 0.352468 0.431755 0.000000 0.000000 0.000000 1.000000 0.267230 0.075651 0.408393 1.000000 0.530917 0.364023 1.000000 0.193839 1.000000 0.267230 0.075651 1.000000 0.166522 0.192288 1.000000 0.045612 0.098182 0.097049 -0.036800 -0.060249 0.642314 0.352627 0.432706 -0.230326 0.611161 -0.380836 0.039289 -0.252498 -0.616643 0.098699 -0.037426 -0.061273 1.021408 0.560748 0.688089 -0.347787 0.947946 -0.600159 0.103695 -0.393064 -0.991716 -0.132491 -0.590339 0.701485 0.243637 0.070768 -0.763208 0.632591 -0.201385 0.061722 -0.500100 0.519571 -0.042251 0.763208 2.348591
238.000000 0.000000 117.000000 0.340000 38087.974000 55.000000 3.000000 0.186038 0.979243 0.080458 -0.982360 0.181572 0.050629 0.035691 -0.089408 0.995301 0.076103 -0.205196 0.129093 0.451321 0.415796 0.439317 0.000000 0.000000 0.000000 1.000000 0.266791 0.076035 0.407774 1.000000 0.529767 0.364368 1.000000 0.194242 1.000000 0.266791 0.076035 1.000000 0.166448 0.192175 1.000000 0.046038 0.097709 0.075914 -0.205480 0.129566 0.452075 0.416617 0.439965 -0.381627 0.677530 -0.295903 0.141679 -0.091416 -0.478899 0.077205 -0.208973 0.131768 0.718889 0.662504 0.699632 -0.494859 1.028635 -0.533776 0.208750 -0.134047 -0.789433 0.093813 -0.447120 0.680783 0.139851 0.030137 -0.556833 0.601384 0.014414 -0.123950 -0.695197 0.416983 -0.154265 0.695197 2.106202
239.000000 0.000000 117.000000 0.330000 32745.684000 56.000000 3.000000 0.186232 0.979178 0.080796 -0.982394 0.181845 0.050461 0.035819 -0.089662 0.995782 0.268789 -0.085807 -0.182982 0.620905 0.334270 0.408435 0.000000 0.000000 0.000000 1.000000 0.267837 0.075479 0.409610 1.000000 0.531446 0.364393 1.000000 0.194248 1.000000 0.267837 0.075479 1.000000 0.166302 0.192796 1.000000 0.046095 0.098082 0.269306 -0.086280 -0.183026 0.621617 0.334812 0.408890 -0.262368 0.653665 -0.391297 -0.100019 -0.276601 -0.557948 0.273884 -0.087746 -0.186137 0.988496 0.532418 0.650217 -0.374701 0.975724 -0.601023 -0.040325 -0.416789 -0.916451 -0.038558 -0.473276 0.768546 0.333828 -0.049701 -0.856805 0.481199 -0.325905 0.088259 -0.442641 0.522977 -0.007923 0.856805 2.286081
240.000000 0.000000 118.000000 0.360000 26398.041000 57.000000 3.000000 0.186289 0.979189 0.080534 -0.982362 0.182004 0.050589 0.035770 -0.089497 0.995605 0.206314 -0.153320 -0.052994 0.529696 0.395028 0.356071 0.000000 0.000000 0.000000 1.000000 0.267891 0.075860 0.408596 1.000000 0.531109 0.364273 1.000000 0.194482 1.000000 0.267891 0.075860 1.000000 0.166832 0.192347 1.000000 0.045949 0.097924 0.206341 -0.153163 -0.053179 0.530154 0.395607 0.356556 -0.302610 0.676826 -0.374216 0.009927 -0.217626 -0.454775 0.209849 -0.155767 -0.054083 0.843051 0.629094 0.566995 -0.400590 1.012688 -0.612098 0.082718 -0.326057 -0.755048 0.061915 -0.451739 0.750263 0.236610 0.004950 -0.683399 0.467899 -0.220449 -0.066864 -0.529814 0.446789 -0.016161 0.750263 2.095417
241.000000 0.000000 114.000000 0.380000 23288.354000 58.000000 3.000000 0.186404 0.979180 0.080378 -0.982304 0.182102 0.050773 0.036017 -0.089421 0.995709 0.231427 -0.097969 -0.133458 0.552725 0.405734 0.356779 0.000000 0.000000 0.000000 1.000000 0.267784 0.076300 0.408581 1.000000 0.532087 0.363752 1.000000 0.194122 1.000000 0.267784 0.076300 1.000000 0.167265 0.192105 1.000000 0.045378 0.098363 0.231539 -0.098089 -0.133450 0.553540 0.406321 0.357078 -0.250715 0.683288 -0.432573 -0.034087 -0.235638 -0.473720 0.235475 -0.099756 -0.135718 0.880239 0.646132 0.567825 -0.348954 1.027770 -0.678817 0.041279 -0.354208 -0.781050 0.041284 -0.486281 0.759996 0.232431 -0.023996 -0.742709 0.439631 -0.279081 -0.017287 -0.480914 0.510277 0.046650 0.759996 2.161001
242.000000 0.000000 112.000000 0.460000 18247.107000 59.000000 3.000000 0.186441 0.979169 0.080426 -0.982552 0.182162 0.050739 0.036049 -0.089489 0.996017 0.419957 -0.161873 -0.258085 0.589986 0.398372 0.369204 0.000000 0.000000 0.000000 1.000000 0.268013 0.076180 0.409206 1.000000 0.532373 0.363466 1.000000 0.194070 1.000000 0.268013 0.076180 1.000000 0.167217 0.192130 1.000000 0.045422 0.098434 0.420180 -0.161880 -0.258300 0.591155 0.398986 0.369971 -0.313364 0.766380 -0.453016 -0.178359 -0.288419 -0.468929 0.427323 -0.164632 -0.262691 0.940055 0.634468 0.588328 -0.416961 1.114731 -0.697771 -0.105900 -0.421863 -0.794277 0.116909 -0.401132 0.884461 0.366420 -0.138105 -0.905657 0.342263 -0.425289 0.021196 -0.459172 0.539237 0.058869 0.905657 2.305477
243.000000 0.000000 103.000000 0.590000 12185.250000 60.000000 3.000000 0.186309 0.979202 0.080324 -0.982431 0.182293 0.050681 0.035993 -0.089240 0.996160 0.426188 -0.057294 -0.368894 0.568803 0.330622 0.231212 0.000000 0.000000 0.000000 1.000000 0.268341 0.076077 0.408674 1.000000 0.531674 0.362831 1.000000 0.194059 1.000000 0.268341 0.076077 1.000000 0.167248 0.191827 1.000000 0.045201 0.098205 0.427049 -0.057487 -0.369562 0.569856 0.331042 0.231736 -0.161563 0.632727 -0.471164 -0.237966 -0.351151 -0.380784 0.434309 -0.058465 -0.375845 0.906184 0.526424 0.368507 -0.233330 0.918808 -0.685478 -0.168190 -0.523835 -0.643260 0.046137 -0.383686 0.786034 0.356211 -0.111238 -0.851135 0.189647 -0.550250 0.065101 -0.235784 0.494924 0.194039 0.851135 2.049932
244.000000 0.000000 116.000000 0.410000 36769.761000 0.000000 4.000000 -0.194761 0.832872 -0.518066 0.689933 -0.257355 -0.674614 -0.697489 -0.488548 -0.525400 -0.240771 1.089598 -0.848828 0.524079 -0.568216 -0.390906 0.000000 0.000000 0.000000 0.006415 1.000000 0.479626 0.148280 0.871991 1.000000 1.000000 0.643530 0.261662 0.006415 1.000000 0.479626 0.767237 0.724398 1.000000 0.169400 0.012543 1.000000 -0.240883 1.089772 -0.848889 0.524166 -0.568510 -0.391016 -0.456065 0.854400 -0.398335 -0.131377 -0.418390 -0.996656 -0.244978 1.108298 -0.863320 0.833530 -0.904044 -0.621793 -0.781083 1.368181 -0.587098 -0.356737 -0.458608 -1.079164 -1.261834 -0.523685 -0.581260 0.156889 0.341696 -0.338878 -0.165996 -0.846570 0.920138 1.427830 0.181989 0.689681 1.427830 2.957461
245.000000 0.000000 112.000000 0.410000 24856.805000 1.000000 4.000000 -0.195388 0.833204 -0.517296 -0.697344 -0.488655 -0.524823 -0.689610 0.256999 0.675150 -0.342594 -0.598131 0.940725 -0.489543 0.190178 -0.296355 0.000000 0.000000 0.000000 0.007740 1.000000 0.482539 0.148534 0.870970 1.000000 1.000000 0.647121 0.262293 0.007740 1.000000 0.482539 0.769429 0.728805 1.000000 0.170159 0.012928 1.000000 -0.342775 -0.597954 0.940729 -0.489781 0.189916 -0.296128 -0.355033 0.683308 -0.328275 0.140229 -0.325816 -0.753306 -0.348602 -0.608119 0.956721 -0.778849 0.302005 -0.470903 -0.647911 1.063707 -0.415796 0.068396 -0.330076 -0.804477 0.547204 0.300618 -0.088723 -0.335309 0.407177 1.043105 0.022687 0.658614 -0.954381 -0.569891 -0.707795 -0.323305 1.043105 2.206503
246.000000 0.000000 117.000000 0.410000 38859.842000 2.000000 4.000000 -0.195153 0.833247 -0.517315 -0.697788 -0.488004 -0.525099 -0.689264 0.257179 0.674597 -0.486306 -0.878465 1.364771 -0.614857 0.087757 -0.594067 0.000000 0.000000 0.000000 0.007358 1.000000 0.479599 0.146895 0.870867 1.000000 1.000000 0.646974 0.262708 0.007358 1.000000 0.479599 0.769292 0.725571 1.000000 0.170722 0.013166 1.000000 -0.486250 -0.878433 1.364684 -0.614809 0.087842 -0.594212 -0.522923 0.900422 -0.377498 0.155470 -0.706788 -1.018302 -0.494516 -0.893367 1.387883 -0.977669 0.139687 -0.944916 -0.949641 1.400980 -0.451339 0.025440 -0.852035 -1.044942 0.618989 0.504935 -0.179275 -0.293329 0.755115 1.553378 -0.016406 0.781858 -1.374104 -0.602583 -1.260050 -0.488529 1.553378 3.171427
247.000000 0.000000 118.000000 0.500000 32683.052000 3.000000 4.000000 -0.195122 0.833293 -0.517252 -0.697370 -0.488350 -0.525077 -0.689720 0.257050 0.674840 -0.382225 -0.639719 1.021943 -0.559629 0.143062 -0.365340 0.000000 0.000000 0.000000 0.007357 1.000000 0.480913 0.148456 0.870388 1.000000 1.000000 0.646007 0.263161 0.007357 1.000000 0.480913 0.769766 0.727694 1.000000 0.169842 0.013446 1.000000 -0.381853 -0.639959 1.021812 -0.559778 0.143223 -0.365332 -0.436516 0.765668 -0.329152 0.166440 -0.415426 -0.790071 -0.388345 -0.650838 1.039183 -0.890159 0.227754 -0.580951 -0.787342 1.190534 -0.403193 0.095035 -0.455736 -0.832022 0.563548 0.377588 -0.163263 -0.349224 0.456552 1.183364 -0.017792 0.709020 -1.020100 -0.545756 -0.834140 -0.359796 1.183364 2.454940
248.000000 0.000000 113.000000 0.410000 26207.035000 4.000000 4.000000 -0.194973 0.833394 -0.517145 -0.697395 -0.488112 -0.525360 -0.689790 0.256879 0.674873 -0.356422 -0.664721 1.021142 -0.560876 0.219017 -0.435335 0.000000 0.000000 0.000000 0.007163 1.000000 0.480365 0.148421 0.868256 1.000000 1.000000 0.645451 0.263879 0.007163 1.000000 0.480365 0.770784 0.727508 1.000000 0.169667 0.014153 1.000000 -0.356069 -0.664403 1.020472 -0.560917 0.218766 -0.435417 -0.447695 0.815987 -0.368292 0.077001 -0.415289 -0.823114 -0.362122 -0.675698 1.037820 -0.891971 0.347882 -0.692400 -0.798577 1.276691 -0.478115 -0.041896 -0.457395 -0.877120 0.634184 0.350140 -0.094107 -0.378151 0.490049 1.218340 -0.075293 0.652998 -1.124234 -0.558892 -0.840189 -0.274847 1.218340 2.585596
249.000000 0.000000 108.000000 0.480000 16227.935000 5.000000 4.000000 -0.194642 0.833465 -0.517156 -0.697361 -0.488152 -0.525303 -0.689959 0.256818 0.674911 -0.325313 -0.599097 0.924411 -0.627385 0.346339 -0.270710 0.000000 0.000000 0.000000 0.007214 1.000000 0.480667 0.148500 0.868371 1.000000 1.000000 0.643874 0.264635 0.007214 1.000000 0.480667 0.770650 0.726080 1.000000 0.169178 0.014512 1.000000 -0.325445 -0.599053 0.924499 -0.627147 0.346434 -0.271151 -0.445252 0.850748 -0.405496 0.114569 -0.187346 -0.809409 -0.330978 -0.609237 0.940215 -0.997289 0.550899 -0.431184 -0.787379 1.333371 -0.545992 0.032741 -0.113786 -0.896861 0.745644 0.295837 -0.068639 -0.518446 0.287851 1.102134 -0.064209 0.750074 -1.033495 -0.681435 -0.583688 -0.231628 1.102134 2.549326
250.000000 0.000000 109.000000 0.440000 12260.551000 6.000000 4.000000 -0.193882 0.833452 -0.517462 -0.695982 -0.487865 -0.527978 -0.691569 0.256535 0.672806 -0.349122 -0.931133 1.280255 -0.470509 0.130986 -0.766585 0.000000 0.000000 0.000000 0.001419 1.000000 0.472527 0.153303 0.863263 1.000000 1.000000 0.637968 0.267548 0.001419 1.000000 0.472527 0.772899 0.730178 1.000000 0.165621 0.016959 1.000000 -0.349003 -0.931556 1.280559 -0.470438 0.130719 -0.766667 -0.472030 0.810682 -0.338652 -0.083431 -0.782567 -1.012013 -0.354936 -0.947392 1.302328 -0.748091 0.207870 -1.219154 -0.837508 1.288337 -0.450828 -0.317562 -0.996137 -1.036152 0.632139 0.462414 0.021325 -0.148400 0.868886 1.479700 -0.126549 0.484265 -1.501025 -0.505589 -1.331300 -0.335865 1.501025 3.216667
251.000000 0.000000 110.000000 0.320000 15414.993000 7.000000 4.000000 -0.193801 0.833450 -0.517496 -0.695257 -0.488162 -0.528001 -0.692351 0.256251 0.672906 -0.285850 -0.520776 0.806626 -0.487717 0.238748 -0.560872 0.000000 0.000000 0.000000 0.001073 1.000000 0.473684 0.155973 0.862291 1.000000 1.000000 0.636169 0.268265 0.001073 1.000000 0.473684 0.772981 0.733306 1.000000 0.164086 0.017778 1.000000 -0.285825 -0.520834 0.806659 -0.488370 0.238793 -0.560614 -0.430975 0.804198 -0.373223 -0.094980 -0.427089 -0.659042 -0.290684 -0.529688 0.820372 -0.776607 0.379729 -0.891488 -0.757375 1.263136 -0.505762 -0.280713 -0.518235 -0.708005 0.569645 0.259597 -0.064452 -0.374499 0.500487 1.134584 -0.227410 0.406687 -1.070132 -0.342235 -0.760084 -0.032187 1.134584 2.486625
252.000000 0.000000 110.000000 0.330000 14017.654000 8.000000 4.000000 -0.193790 0.833346 -0.517667 -0.695115 -0.488303 -0.528016 -0.692468 0.256408 0.672732 -0.291865 -0.504770 0.796635 -0.464580 0.191707 -0.558293 0.000000 0.000000 0.000000 0.000784 1.000000 0.473314 0.156435 0.863508 1.000000 1.000000 0.635734 0.267884 0.000784 1.000000 0.473314 0.772204 0.733452 1.000000 0.163828 0.017408 1.000000 -0.291555 -0.504922 0.796476 -0.464330 0.191535 -0.558661 -0.417156 0.766823 -0.349667 -0.078488 -0.454845 -0.629569 -0.296511 -0.513505 0.810016 -0.738378 0.304579 -0.888383 -0.736986 1.201691 -0.464706 -0.254644 -0.563864 -0.668352 0.514373 0.265685 -0.088510 -0.337198 0.512977 1.115860 -0.212384 0.390499 -1.027350 -0.301989 -0.778663 -0.053301 1.115860 2.406903
253.000000 0.000000 107.000000 0.530000 12715.803000 9.000000 4.000000 -0.193787 0.833312 -0.517723 -0.694689 -0.488496 -0.527564 -0.692185 0.256921 0.671777 -0.675372 -0.447376 1.122748 -0.473191 -0.219192 -0.342205 0.000000 0.000000 0.000000 0.000400 1.000000 0.471898 0.156757 0.869543 1.000000 1.000000 0.636014 0.267870 0.000400 1.000000 0.471898 0.769975 0.733074 1.000000 0.163768 0.016450 1.000000 -0.675077 -0.447646 1.122724 -0.473337 -0.219165 -0.342017 -0.307033 0.644546 -0.337512 0.443349 -0.691038 -0.601220 -0.686553 -0.455256 1.141810 -0.752700 -0.348517 -0.543875 -0.659623 0.936752 -0.277129 0.469392 -0.856908 -0.570674 0.070581 0.355143 -0.543996 -0.259434 0.661173 1.275751 0.217102 0.831679 -0.731754 -0.287682 -1.016317 -0.572245 1.275751 2.434128
254.000000 0.000000 91.000000 1.880000 7078.713000 10.000000 4.000000 -0.194173 0.833283 -0.517626 -0.693123 -0.489198 -0.526192 -0.690703 0.259553 0.666950 -2.361526 -0.676783 3.038309 -0.418159 -2.611232 0.345350 0.000000 0.000000 0.000000 0.002224 1.000000 0.462814 0.157510 0.896773 1.000000 1.000000 0.639615 0.267794 0.002224 1.000000 0.462814 0.762037 0.733185 1.000000 0.164358 0.011606 1.000000 -2.361564 -0.676557 3.038121 -0.417971 -2.611488 0.345298 0.049220 -0.118051 0.068832 2.900155 -2.410278 -0.717886 -2.401710 -0.688059 3.089769 -0.664657 -4.152789 0.549093 -0.525508 -0.559532 1.085040 3.874789 -3.148958 -0.264354 -2.123619 1.267118 -2.666309 0.724428 1.746376 2.289066 2.194708 2.737398 0.377243 -0.071089 -3.013494 -3.461827 3.461827 8.811881
255.000000 0.000000 97.000000 2.300000 11601.560000 11.000000 4.000000 0.754913 -0.629516 0.183894 0.276633 0.559711 0.779907 -0.593246 -0.542979 0.595210 -0.149562 0.825012 -0.675450 1.906979 -1.708407 0.040022 0.000000 0.000000 0.000000 0.341833 0.947817 1.000000 1.000000 0.835043 0.086997 0.610667 1.000000 0.979874 0.341833 0.947817 1.000000 0.073960 0.031172 1.000000 0.318206 1.000000 0.536856 -0.149633 0.825164 -0.675530 1.907019 -1.708266 0.040044 0.668008 0.507534 -1.175542 2.193375 -0.013012 -1.132427 -0.152177 0.839192 -0.687014 3.032542 -2.716485 0.063678 1.211870 0.409023 -1.620893 3.354485 -0.201475 -1.937674 -2.751755 -0.533754 -0.275695 1.942306 0.993687 -1.482373 1.045680 -1.430380 1.758068 1.706075 -0.459933 -0.511926 2.751755 7.179001
256.000000 0.000000 116.000000 1.920000 20948.994000 12.000000 4.000000 -0.599975 0.590632 -0.539614 -0.144203 -0.741467 -0.653503 -0.787019 -0.315905 0.529501 -0.467307 0.717931 -0.250624 -0.847821 0.060044 -0.613133 0.000000 0.000000 0.000000 0.289533 1.000000 0.381473 1.000000 0.010759 0.196140 0.222526 1.000000 0.050527 0.289533 1.000000 0.381473 0.278687 0.718113 1.000000 0.126769 0.012265 1.000000 -0.467147 0.718358 -0.251211 -0.847942 0.060079 -0.613266 -0.548542 0.991409 -0.442867 0.074941 -0.105346 -0.860651 -0.475088 0.730570 -0.255482 -1.348398 0.095538 -0.975215 -0.695125 1.177908 -0.482783 0.094905 -0.110639 -1.455192 0.097277 0.019270 -1.003685 -1.081692 -0.062697 1.038265 -0.858957 0.242005 -0.034579 0.761680 0.043427 0.839687 1.081692 3.093883
257.000000 0.000000 116.000000 1.930000 24994.065000 13.000000 4.000000 -0.599954 0.590752 -0.539507 -0.787112 -0.316034 0.529799 0.144639 0.741726 0.653559 -0.279571 -0.333090 0.612661 1.003013 0.601621 0.149404 0.000000 0.000000 0.000000 0.288925 1.000000 0.381805 1.000000 0.010431 0.196957 0.222659 1.000000 0.050691 0.288925 1.000000 0.381805 0.278414 0.720075 1.000000 0.126783 0.011796 1.000000 -0.279562 -0.332935 0.612497 1.003146 0.601514 0.149685 -0.485595 0.922578 -0.436983 0.152199 0.059243 -1.003482 -0.284315 -0.338595 0.622909 1.595203 0.956528 0.238029 -0.603727 1.127317 -0.523590 0.231808 0.077779 -1.671377 -0.238578 -1.019580 1.063900 0.282898 0.924437 -0.378041 1.118787 -0.183691 -0.685858 -0.880208 0.095144 -0.099207 1.118787 3.379952
258.000000 0.000000 119.000000 1.640000 27520.304000 14.000000 4.000000 -0.787129 -0.315816 0.529801 0.600078 -0.590943 0.539572 0.144399 0.741898 0.653633 -0.175543 -0.398849 0.574392 -0.456967 0.835777 -0.078820 0.000000 0.000000 0.000000 0.289588 1.000000 0.382528 1.000000 0.010311 0.196613 0.222490 1.000000 0.050608 0.289588 1.000000 0.382528 0.278536 0.718725 1.000000 0.126561 0.012062 1.000000 -0.175645 -0.398695 0.574340 -0.457233 0.835567 -0.078850 -0.435104 0.819745 -0.384641 0.183097 -0.084203 -0.792497 -0.178631 -0.405473 0.584104 -0.727092 1.328718 -0.125387 -0.554201 0.985025 -0.430824 0.270199 -0.074569 -1.329867 0.931889 -0.153005 0.338220 -0.746673 0.065740 0.659409 -0.036638 0.557031 -0.997629 -0.895251 0.087265 0.189643 0.997629 2.781344
259.000000 0.000000 120.000000 1.430000 29083.643000 15.000000 4.000000 -0.599925 0.590834 -0.539449 -0.786914 -0.315567 0.529579 0.144228 0.741743 0.653470 -0.454468 -0.088722 0.543190 0.752290 0.397284 0.020001 0.000000 0.000000 0.000000 0.290054 1.000000 0.382859 1.000000 0.010258 0.196429 0.222476 1.000000 0.050547 0.290054 1.000000 0.382859 0.278548 0.718137 1.000000 0.126399 0.012273 1.000000 -0.454490 -0.088500 0.542990 0.752101 0.397190 0.020207 -0.427645 0.758628 -0.330982 0.189711 -0.165833 -0.693525 -0.462216 -0.090005 0.552221 1.195992 0.631612 0.032134 -0.561375 0.905264 -0.343889 0.275405 -0.165166 -1.167959 -0.382362 -0.898071 0.594161 0.078452 0.889285 -0.087238 0.915523 -0.061001 -0.506923 -0.533161 0.008786 -0.017452 0.915523 2.506218
260.000000 0.000000 117.000000 1.250000 29949.345000 16.000000 4.000000 -0.599894 0.590826 -0.539491 -0.786872 -0.315425 0.529498 0.144107 0.741869 0.653423 -0.479635 0.007232 0.472403 0.707617 0.325284 -0.009278 0.000000 0.000000 0.000000 0.290384 1.000000 0.382984 1.000000 0.009989 0.196373 0.222475 1.000000 0.050414 0.290384 1.000000 0.382984 0.278696 0.717720 1.000000 0.126129 0.012499 1.000000 -0.479223 0.006972 0.472251 0.707499 0.325235 -0.009097 -0.383759 0.665331 -0.281572 0.225470 -0.224941 -0.629868 -0.487370 0.007090 0.480279 1.125065 0.517189 -0.014466 -0.519543 0.796172 -0.276629 0.328757 -0.226053 -1.057468 -0.450027 -0.872310 0.468585 0.046302 0.860253 -0.058359 0.848441 -0.070171 -0.410226 -0.398414 0.012057 0.023869 0.872310 2.302774
261.000000 0.000000 114.000000 0.550000 35028.111000 17.000000 4.000000 -0.599884 0.590872 -0.539453 -0.787030 -0.315506 0.529787 0.143792 0.742039 0.653559 -0.321842 -0.138677 0.460519 0.520624 0.186394 0.046080 0.000000 0.000000 0.000000 0.289883 1.000000 0.383224 1.000000 0.010134 0.195793 0.222699 1.000000 0.050385 0.289883 1.000000 0.383224 0.278728 0.716719 1.000000 0.125971 0.013153 1.000000 -0.321827 -0.138534 0.460361 0.520565 0.186748 0.046283 -0.298550 0.588691 -0.290141 0.197534 -0.061241 -0.415508 -0.327298 -0.140889 0.468187 0.827802 0.296966 0.073599 -0.364645 0.680746 -0.316100 0.297216 -0.048576 -0.716311 -0.292814 -0.535286 0.383084 0.140612 0.632658 -0.043240 0.692751 0.016853 -0.339844 -0.399937 -0.097372 -0.157465 0.692751 1.689925
262.000000 0.000000 115.000000 0.750000 35361.543000 18.000000 4.000000 -0.599765 0.590952 -0.539498 -0.787025 -0.315277 0.529757 0.144040 0.741705 0.653659 -0.401290 -0.126303 0.527594 0.463576 0.363927 0.043328 0.000000 0.000000 0.000000 0.290607 1.000000 0.383963 1.000000 0.010650 0.195969 0.222866 1.000000 0.050278 0.290607 1.000000 0.383963 0.278407 0.718016 1.000000 0.126216 0.012877 1.000000 -0.401516 -0.126243 0.527759 0.463576 0.363626 0.043544 -0.338643 0.679980 -0.341336 0.034072 -0.132263 -0.459813 -0.408342 -0.128389 0.536730 0.737179 0.578237 0.069243 -0.417189 0.788595 -0.371406 0.031938 -0.136574 -0.794753 -0.179178 -0.651307 0.422726 -0.049403 0.658508 0.056604 0.715045 0.113140 -0.479330 -0.535867 -0.007201 -0.063738 0.715045 1.831589
263.000000 0.000000 116.000000 0.820000 38630.898000 19.000000 4.000000 -0.599537 0.591100 -0.539588 -0.786927 -0.314802 0.529649 0.144093 0.742049 0.652959 -0.561487 -0.001345 0.562832 0.576899 0.046487 0.039887 0.000000 0.000000 0.000000 0.291601 1.000000 0.385181 1.000000 0.008809 0.196932 0.223098 1.000000 0.050042 0.291601 1.000000 0.385181 0.279749 0.719433 1.000000 0.125598 0.013122 1.000000 -0.561109 -0.001700 0.562810 0.576666 0.046531 0.040025 -0.292299 0.669742 -0.377443 0.371495 -0.219691 -0.357226 -0.570648 -0.001729 0.572378 0.917015 0.073994 0.063648 -0.355296 0.752938 -0.397641 0.556332 -0.197928 -0.634631 -0.576422 -0.636838 0.172318 0.111901 0.815024 0.066284 0.866992 0.118253 -0.238602 -0.290570 -0.178186 -0.230154 0.866992 1.879153
264.000000 0.000000 114.000000 0.760000 34323.575000 20.000000 4.000000 -0.599233 0.591138 -0.539885 -0.787043 -0.314481 0.529589 0.144811 0.741253 0.653478 -0.623858 -0.023823 0.647680 0.505652 0.699492 0.099209 0.000000 0.000000 0.000000 0.292957 1.000000 0.385843 1.000000 0.010504 0.197326 0.223675 1.000000 0.049621 0.292957 1.000000 0.385843 0.278639 0.723221 1.000000 0.126241 0.012439 1.000000 -0.624002 -0.023626 0.647628 0.505440 0.699719 0.099168 -0.368481 0.877320 -0.508838 -0.176345 -0.312916 -0.669615 -0.634610 -0.024027 0.658637 0.803751 1.112694 0.157698 -0.456952 1.036162 -0.579210 -0.318889 -0.335347 -1.142112 -0.123144 -1.031655 0.533116 -0.375395 0.791716 0.135456 0.920476 0.264216 -0.668572 -0.797332 0.239938 0.111179 1.031655 2.642458
265.000000 0.000000 115.000000 0.680000 31259.049000 21.000000 4.000000 -0.598878 0.591302 -0.540100 -0.787317 -0.313677 0.529467 0.144966 0.741730 0.652913 -0.655850 0.046818 0.609032 0.552573 0.435489 -0.031343 0.000000 0.000000 0.000000 0.294691 1.000000 0.387656 1.000000 0.008603 0.198437 0.224550 1.000000 0.049065 0.294691 1.000000 0.387656 0.279725 0.726069 1.000000 0.125175 0.013219 1.000000 -0.656213 0.046906 0.609307 0.552759 0.435479 -0.031497 -0.425070 0.791019 -0.365949 0.065743 -0.358222 -0.543515 -0.667369 0.047704 0.619665 0.878997 0.692498 -0.050087 -0.565162 0.920176 -0.355015 0.062958 -0.379192 -0.936315 -0.368065 -0.933488 0.349633 -0.215790 0.904726 0.187028 0.863830 0.146132 -0.536661 -0.495765 0.028761 0.069657 0.933488 2.238651
266.000000 0.000000 113.000000 0.680000 24601.883000 22.000000 4.000000 -0.598673 0.591418 -0.540199 -0.787603 -0.313432 0.529790 0.144790 0.741995 0.652851 -0.505530 -0.123040 0.628570 0.364693 0.261648 0.022619 0.000000 0.000000 0.000000 0.294876 1.000000 0.388742 1.000000 0.008155 0.198351 0.225223 1.000000 0.048713 0.294876 1.000000 0.388742 0.280223 0.726753 1.000000 0.124690 0.014134 1.000000 -0.505453 -0.123094 0.628546 0.365008 0.261670 0.022560 -0.351821 0.736637 -0.384815 0.064538 -0.181564 -0.301140 -0.514045 -0.125186 0.639231 0.580435 0.416108 0.035875 -0.419420 0.822880 -0.403460 0.074240 -0.186007 -0.554600 -0.225838 -0.565588 0.248086 -0.091665 0.693139 0.219216 0.722431 0.248507 -0.467302 -0.496593 -0.127551 -0.156843 0.722431 1.602127
267.000000 0.000000 106.000000 0.960000 16826.691000 23.000000 4.000000 -0.598714 0.591383 -0.540192 -0.788103 -0.313657 0.530383 0.144082 0.742484 0.652696 -0.192910 -0.588705 0.781615 0.128988 -0.123800 0.075720 0.000000 0.000000 0.000000 0.293480 1.000000 0.388815 1.000000 0.007557 0.197427 0.225795 1.000000 0.048498 0.293480 1.000000 0.388815 0.281279 0.724965 1.000000 0.124136 0.015750 1.000000 -0.192543 -0.589054 0.781597 0.129149 -0.123895 0.075794 -0.354769 0.758306 -0.403538 0.171361 0.237700 0.132358 -0.195817 -0.599068 0.794885 0.205373 -0.197018 0.120527 -0.324362 0.772063 -0.447701 0.273858 0.267358 0.112749 0.000351 0.161216 0.168038 0.328902 0.439090 0.271404 0.537500 0.369814 -0.439441 -0.537852 -0.600306 -0.698716 0.698716 1.352836
268.000000 0.000000 105.000000 1.180000 13551.896000 24.000000 4.000000 -0.598128 0.591638 -0.540562 -0.788015 -0.313136 0.530221 0.144374 0.742895 0.652508 -0.223434 -0.301454 0.524887 0.211318 -0.224957 0.273264 0.000000 0.000000 0.000000 0.295137 1.000000 0.389802 1.000000 0.006332 0.198543 0.226601 1.000000 0.048185 0.295137 1.000000 0.389802 0.281750 0.728257 1.000000 0.123490 0.016091 1.000000 -0.223509 -0.301761 0.525271 0.211601 -0.225097 0.273185 -0.007998 0.509805 -0.501807 0.311150 0.155130 0.042063 -0.227309 -0.306891 0.534200 0.336488 -0.357949 0.434418 0.134282 0.519241 -0.653522 0.488066 0.223837 0.001961 -0.251013 0.041251 0.023728 0.315992 0.270905 -0.003836 0.625606 0.350865 -0.019892 -0.374593 -0.312156 -0.666857 0.666857 1.391778
269.000000 0.000000 98.000000 0.790000 10205.091000 25.000000 4.000000 -0.598108 0.591581 -0.540647 -0.787978 -0.312626 0.529547 0.145581 0.742285 0.652341 -0.535092 -0.066478 0.601570 0.665360 0.319568 -0.026634 0.000000 0.000000 0.000000 0.297067 1.000000 0.390201 1.000000 0.006362 0.200425 0.226528 1.000000 0.048088 0.297067 1.000000 0.390201 0.281058 0.733126 1.000000 0.123886 0.014328 1.000000 -0.535392 -0.066351 0.601743 0.665320 0.319521 -0.026775 -0.453658 0.783092 -0.329434 0.205621 -0.221989 -0.562752 -0.544494 -0.067479 0.611973 1.057992 0.508103 -0.042577 -0.595375 0.911722 -0.316347 0.295711 -0.226550 -0.967179 -0.419232 -0.834096 0.444615 0.029751 0.921431 0.057584 0.886667 0.022821 -0.502199 -0.467435 -0.087335 -0.052571 0.921431 2.269645
270.000000 0.000000 113.000000 0.720000 21304.387000 26.000000 4.000000 0.180342 0.979068 0.094356 0.982851 -0.174196 -0.065485 -0.048934 0.105400 -0.993463 0.183472 -0.130358 -0.053113 0.698908 -0.315086 -0.260818 0.000000 0.000000 0.000000 1.000000 0.233070 0.102884 0.468238 1.000000 0.566717 0.387174 1.000000 0.150481 1.000000 0.233070 0.102884 1.000000 0.122959 0.224923 1.000000 0.044302 0.128980 0.183181 -0.130118 -0.053063 0.698533 -0.315074 -0.260618 -0.273511 0.596874 -0.323363 0.048145 -0.420923 -0.484236 0.186296 -0.132330 -0.053965 1.110808 -0.501031 -0.414435 -0.366268 0.891849 -0.525580 0.137218 -0.653165 -0.797435 -0.527952 -0.118862 0.379019 0.788109 0.524592 -0.382379 0.186207 -0.720764 0.003360 0.341745 -0.405730 -0.067345 0.788109 2.247830
271.000000 0.000000 109.000000 0.470000 20460.292000 27.000000 4.000000 0.180202 0.979126 0.094023 -0.982734 0.174456 0.065498 0.049172 -0.105168 0.993190 0.065441 -0.178801 0.113360 0.809219 0.364737 0.059373 0.000000 0.000000 0.000000 1.000000 0.233463 0.103052 0.466581 1.000000 0.566201 0.386639 1.000000 0.149757 1.000000 0.233463 0.103052 1.000000 0.123251 0.224229 1.000000 0.043544 0.129289 0.065373 -0.178596 0.113223 0.808993 0.364695 0.059515 -0.262742 0.579077 -0.316336 0.238697 -0.597087 -0.387044 0.066484 -0.181632 0.115148 1.286461 0.579937 0.094641 -0.320382 0.879202 -0.558820 0.365402 -0.942279 -0.640493 -0.187144 -0.660661 0.863247 0.389730 0.506425 -0.543965 0.583699 -0.466691 -0.319281 -0.396555 0.154236 0.076962 0.863247 2.465116
272.000000 0.000000 109.000000 0.420000 20170.803000 28.000000 4.000000 0.180293 0.979131 0.093790 -0.982686 0.174174 0.065877 0.049571 -0.104968 0.993415 0.115997 -0.057057 -0.058940 0.775382 0.334471 0.227394 0.000000 0.000000 0.000000 1.000000 0.232198 0.103947 0.466746 1.000000 0.567569 0.385502 1.000000 0.149070 1.000000 0.232198 0.103947 1.000000 0.123697 0.223854 1.000000 0.042557 0.129965 0.116081 -0.057241 -0.058840 0.775707 0.334099 0.227260 -0.201544 0.576519 -0.374975 0.095491 -0.488544 -0.520099 0.118055 -0.058214 -0.059840 1.233529 0.531284 0.361388 -0.290897 0.884566 -0.593668 0.197141 -0.766892 -0.841525 -0.214729 -0.648521 0.792444 0.358652 0.283425 -0.723748 0.578497 -0.428675 -0.068696 -0.363768 0.365096 0.070024 0.792444 2.415520
273.000000 0.000000 111.000000 0.410000 22527.134000 29.000000 4.000000 0.180169 0.979183 0.093482 -0.982847 0.174184 0.066186 0.049822 -0.104880 0.993369 0.162140 -0.191558 0.029419 0.743830 0.429331 0.167479 0.000000 0.000000 0.000000 1.000000 0.231634 0.104730 0.465922 1.000000 0.567276 0.384890 1.000000 0.148303 1.000000 0.231634 0.104730 1.000000 0.123830 0.223258 1.000000 0.042019 0.130344 0.162291 -0.191726 0.029435 0.743890 0.429242 0.167195 -0.303936 0.692964 -0.389028 0.156503 -0.492146 -0.410971 0.165050 -0.194986 0.029936 1.182934 0.682580 0.265874 -0.380302 1.038986 -0.658684 0.281922 -0.767505 -0.686644 -0.057285 -0.614609 0.908577 0.351253 0.319228 -0.646634 0.536313 -0.429549 -0.261943 -0.479029 0.295381 0.078296 0.908577 2.430443
274.000000 0.000000 112.000000 0.410000 19850.943000 30.000000 4.000000 0.179952 0.979193 0.093804 -0.983050 0.173481 0.067161 0.049940 -0.105142 0.993898 0.395877 -0.100675 -0.295202 0.290619 0.367713 0.365278 0.000000 0.000000 0.000000 1.000000 0.228770 0.106670 0.468429 1.000000 0.567692 0.384631 1.000000 0.147662 1.000000 0.228770 0.106670 1.000000 0.122558 0.224069 1.000000 0.042271 0.130650 0.395598 -0.100758 -0.294840 0.290690 0.367654 0.365083 -0.235829 0.659514 -0.423685 -0.201860 -0.054769 -0.317739 0.402323 -0.102471 -0.299853 0.462255 0.584644 0.580554 -0.326128 0.954042 -0.627915 -0.141071 -0.054086 -0.543532 0.256046 -0.221313 0.633476 0.156116 -0.334958 -0.712387 0.139063 -0.238367 0.078911 -0.395109 0.556271 0.082250 0.712387 1.752430
275.000000 0.000000 112.000000 0.390000 20989.406000 31.000000 4.000000 0.180094 0.979162 0.093851 -0.982994 0.173520 0.067009 0.050323 -0.105134 0.993717 0.322616 -0.115765 -0.206850 0.560297 0.309519 0.418954 0.000000 0.000000 0.000000 1.000000 0.229095 0.106345 0.468557 1.000000 0.569191 0.384565 1.000000 0.146992 1.000000 0.229095 0.106345 1.000000 0.122684 0.224198 1.000000 0.041532 0.131392 0.322496 -0.115391 -0.207105 0.560199 0.309649 0.419115 -0.298993 0.654536 -0.355543 -0.126359 -0.242919 -0.518054 0.327978 -0.117352 -0.210626 0.890829 0.492404 0.666476 -0.417253 0.958303 -0.541050 -0.063264 -0.359031 -0.858827 0.019149 -0.382897 0.746508 0.344462 -0.128293 -0.855651 0.415883 -0.311476 0.109144 -0.435032 0.511190 -0.032986 0.855651 2.165466
276.000000 0.000000 105.000000 0.490000 17690.395000 32.000000 4.000000 0.180288 0.979108 0.094038 -0.983180 0.173810 0.066809 0.050241 -0.105452 0.993755 0.417807 -0.239311 -0.178496 0.665333 0.370553 0.396932 0.000000 0.000000 0.000000 1.000000 0.230146 0.105821 0.469423 1.000000 0.569886 0.385330 1.000000 0.147390 1.000000 0.230146 0.105821 1.000000 0.122717 0.224579 1.000000 0.042068 0.131399 0.418168 -0.239330 -0.178837 0.665158 0.370245 0.397076 -0.417018 0.791809 -0.374791 -0.117937 -0.348956 -0.512741 0.425276 -0.243399 -0.181877 1.057735 0.588763 0.631430 -0.538195 1.137630 -0.599435 -0.033385 -0.518678 -0.871211 0.081529 -0.399194 0.945166 0.464443 -0.073831 -0.937468 0.441729 -0.421908 -0.007698 -0.523258 0.473026 -0.042535 0.945166 2.449943
277.000000 0.000000 99.000000 0.420000 14687.989000 33.000000 4.000000 0.180103 0.979113 0.094344 -0.982859 0.173533 0.066810 0.050166 -0.105791 0.993535 0.235051 -0.059353 -0.175698 0.642198 0.406712 0.402597 0.000000 0.000000 0.000000 1.000000 0.229638 0.105746 0.470189 1.000000 0.569626 0.386355 1.000000 0.147222 1.000000 0.229638 0.105746 1.000000 0.121904 0.225220 1.000000 0.042665 0.131443 0.234859 -0.059311 -0.175548 0.642414 0.406300 0.402443 -0.247967 0.707343 -0.459376 -0.025459 -0.294385 -0.557448 0.238852 -0.060319 -0.178533 1.021567 0.646098 0.639965 -0.365576 1.068530 -0.702954 0.066414 -0.448534 -0.909127 -0.031149 -0.558685 0.802957 0.275421 -0.014608 -0.848714 0.507922 -0.326185 0.045757 -0.476773 0.573293 0.050764 0.848714 2.398048
278.000000 0.000000 89.000000 0.510000 11997.672000 34.000000 4.000000 -0.182114 -0.981786 -0.054135 0.078240 -0.069955 0.995278 -0.980851 0.176492 0.087796 0.419224 -0.375330 -0.043894 0.852261 -0.298226 -0.276376 0.000000 0.000000 0.000000 1.000000 0.186095 0.166115 0.362187 1.000000 0.601130 0.281398 1.000000 0.101582 1.000000 0.186095 0.166115 1.000000 0.189361 0.148452 1.000000 0.054265 0.104826 0.419317 -0.375430 -0.043887 0.851959 -0.298439 -0.276502 -0.256932 0.665820 -0.408888 -0.227405 -0.548881 -0.599551 0.426446 -0.381813 -0.044633 1.354785 -0.474578 -0.439693 -0.391058 0.984622 -0.593564 -0.148616 -0.832698 -0.982841 -0.416864 -0.029373 0.689313 1.076805 0.540275 -0.565902 0.181268 -0.924910 -0.123411 0.235597 -0.510903 -0.151895 1.076805 2.693777
279.000000 0.000000 104.000000 0.580000 14873.505000 35.000000 4.000000 0.182078 0.981798 0.054046 -0.980647 0.176471 0.087997 0.077770 -0.069464 0.995344 0.355815 0.079591 -0.435406 0.466909 0.122775 0.269813 0.000000 0.000000 0.000000 1.000000 0.185627 0.166564 0.361378 1.000000 0.599633 0.280988 1.000000 0.102587 1.000000 0.185627 0.166564 1.000000 0.189530 0.148344 1.000000 0.054024 0.103999 0.355580 0.079285 -0.434865 0.467138 0.122583 0.269707 -0.078434 0.373816 -0.295382 -0.315920 -0.266778 -0.423504 0.361625 0.080633 -0.442258 0.742842 0.194931 0.428888 -0.173614 0.552127 -0.378513 -0.289582 -0.388808 -0.682666 -0.108969 -0.268130 0.497559 0.338398 -0.200013 -0.806541 0.150173 -0.456355 0.308982 -0.041204 0.468143 0.117957 0.806541 1.679456
280.000000 0.000000 90.000000 1.220000 13005.720000 36.000000 4.000000 0.183098 0.981633 0.053585 -0.980264 0.177404 0.087328 0.077771 -0.068829 0.994908 0.106873 0.100093 -0.206966 0.781536 0.006827 0.329507 0.000000 0.000000 0.000000 1.000000 0.188418 0.165469 0.359284 1.000000 0.602506 0.280725 1.000000 0.104218 1.000000 0.188418 0.165469 1.000000 0.192559 0.147594 1.000000 0.055069 0.102634 0.107089 0.099947 -0.207036 0.781167 0.006990 0.329649 -0.138427 0.282071 -0.143644 -0.095404 -0.451448 -0.691746 0.108910 0.101646 -0.210556 1.242212 0.011115 0.524208 -0.276489 0.449276 -0.172787 -0.066603 -0.706424 -1.092577 -0.499628 -0.508703 0.514634 0.505558 0.162703 -0.851559 0.590716 -0.423545 0.336925 -0.091089 0.346001 -0.082013 0.851559 2.356653
281.000000 0.000000 89.000000 0.610000 12212.817000 37.000000 4.000000 0.183584 0.981561 0.053247 -0.980421 0.177714 0.087080 0.077734 -0.068821 0.995353 0.315881 0.121436 -0.437318 0.882084 0.141579 0.457955 0.000000 0.000000 0.000000 1.000000 0.189445 0.165027 0.359390 1.000000 0.603982 0.280193 1.000000 0.105096 1.000000 0.189445 0.165027 1.000000 0.194182 0.146896 1.000000 0.055062 0.102579 0.315547 0.121601 -0.437149 0.882081 0.141461 0.457935 -0.169591 0.518769 -0.349178 -0.268806 -0.480672 -0.804552 0.320912 0.123669 -0.444580 1.402685 0.224951 0.728209 -0.341164 0.796699 -0.455536 -0.224416 -0.732328 -1.280780 -0.400284 -0.583955 0.745004 0.561332 -0.037157 -1.182445 0.557423 -0.587864 0.437441 -0.157139 0.621113 0.026533 1.182445 2.849411
282.000000 0.000000 95.000000 0.910000 13023.966000 38.000000 4.000000 0.182599 0.981786 0.052474 -0.980809 0.176795 0.088249 0.078324 -0.068540 0.995478 0.473110 -0.042524 -0.430587 0.543089 0.376337 0.444580 0.000000 0.000000 0.000000 1.000000 0.185304 0.167730 0.357879 1.000000 0.601138 0.278298 1.000000 0.102627 1.000000 0.185304 0.167730 1.000000 0.193241 0.145296 1.000000 0.056261 0.102065 0.473073 -0.042111 -0.430962 0.542975 0.376311 0.444506 -0.258472 0.747479 -0.489006 -0.311341 -0.219350 -0.512143 0.481115 -0.042827 -0.438288 0.863439 0.598410 0.706853 -0.395278 1.106900 -0.711621 -0.252586 -0.303064 -0.846391 0.105700 -0.382899 0.810696 0.322096 -0.311419 -1.016414 0.265724 -0.439271 0.205718 -0.371425 0.694318 0.117175 1.016414 2.334072
283.000000 0.000000 90.000000 1.030000 9643.780000 39.000000 4.000000 0.182811 0.981777 0.051906 -0.980671 0.177156 0.087842 0.078408 -0.067962 0.995214 0.338493 -0.068323 -0.270171 0.753901 0.366246 0.395496 0.000000 0.000000 0.000000 1.000000 0.186416 0.167158 0.355513 1.000000 0.601146 0.277443 1.000000 0.102923 1.000000 0.186416 0.167158 1.000000 0.194837 0.144075 1.000000 0.057215 0.100884 0.338620 -0.068524 -0.270096 0.754144 0.366204 0.395347 -0.302778 0.742490 -0.439712 -0.141604 -0.392242 -0.602687 0.344376 -0.069689 -0.274687 1.199240 0.582338 0.628681 -0.449228 1.115647 -0.666418 -0.062147 -0.591345 -0.986479 -0.082808 -0.558285 0.896368 0.420891 -0.019802 -0.998977 0.493514 -0.485661 0.102610 -0.410706 0.578087 0.064771 0.998977 2.610739
284.000000 0.000000 91.000000 0.680000 13296.481000 40.000000 4.000000 0.183907 0.981999 0.043078 -0.979962 0.178975 0.091242 0.083278 -0.060238 0.995228 0.287380 -0.053390 -0.233990 0.790533 0.482718 0.270001 0.000000 0.000000 0.000000 1.000000 0.180668 0.178122 0.332327 1.000000 0.607612 0.258358 1.000000 0.097777 1.000000 0.180668 0.178122 1.000000 0.212010 0.127180 1.000000 0.076371 0.084697 0.287499 -0.053255 -0.234244 0.790795 0.482832 0.269619 -0.254139 0.805167 -0.551029 -0.051242 -0.469970 -0.519234 0.292387 -0.054161 -0.238226 1.257522 0.767799 0.428749 -0.379460 1.228394 -0.848933 0.058892 -0.719023 -0.848536 -0.058451 -0.685357 0.968311 0.341406 0.121723 -0.905039 0.471795 -0.554967 -0.063273 -0.413344 0.563633 0.213561 0.968311 2.698494
285.000000 0.000000 98.000000 0.640000 17690.614000 41.000000 4.000000 0.184245 0.981926 0.043295 -0.980220 0.179148 0.091015 0.082987 -0.060278 0.995609 0.493837 -0.109852 -0.383985 0.762831 0.396793 0.375267 0.000000 0.000000 0.000000 1.000000 0.181548 0.177503 0.333311 1.000000 0.608226 0.258483 1.000000 0.098823 1.000000 0.181548 0.177503 1.000000 0.212293 0.127610 1.000000 0.075767 0.084824 0.494083 -0.109620 -0.384463 0.762622 0.396728 0.375183 -0.337885 0.821975 -0.484090 -0.261697 -0.430217 -0.562203 0.502482 -0.111483 -0.390999 1.212721 0.630877 0.596616 -0.485049 1.214506 -0.729457 -0.179931 -0.635722 -0.935857 0.013114 -0.501996 1.003296 0.488187 -0.113238 -1.103421 0.373897 -0.616286 0.100125 -0.387010 0.615234 0.128099 1.103421 2.701970
286.000000 0.000000 101.000000 0.850000 18140.447000 42.000000 4.000000 0.184532 0.981871 0.043334 -0.980117 0.179319 0.090871 0.082692 -0.060105 0.995701 0.485085 -0.035020 -0.450065 0.671242 0.304165 0.428587 0.000000 0.000000 0.000000 1.000000 0.182152 0.177183 0.333307 1.000000 0.608524 0.258519 1.000000 0.099856 1.000000 0.182152 0.177183 1.000000 0.212880 0.127740 1.000000 0.075478 0.084539 0.484849 -0.035205 -0.449644 0.671123 0.304172 0.428473 -0.274086 0.705381 -0.431295 -0.334580 -0.336302 -0.584271 0.493091 -0.035803 -0.457288 1.067220 0.483694 0.681358 -0.424114 1.043920 -0.619806 -0.280159 -0.486348 -0.960214 -0.022303 -0.417238 0.849079 0.454144 -0.230463 -1.101845 0.325863 -0.545519 0.252766 -0.303560 0.647701 0.091375 1.101845 2.488334
287.000000 0.000000 99.000000 0.870000 16872.705000 43.000000 4.000000 0.184666 0.981822 0.043864 -0.980978 0.179728 0.090533 0.082719 -0.060632 0.997269 1.309081 -0.094900 -1.214181 0.872741 0.254663 0.359799 0.000000 0.000000 0.000000 1.000000 0.184031 0.176022 0.336967 1.000000 0.609952 0.257932 1.000000 0.100001 1.000000 0.184031 0.176022 1.000000 0.212127 0.128514 1.000000 0.074785 0.085483 1.308952 -0.095037 -1.213915 0.872863 0.254463 0.360053 -0.318254 0.917052 -0.598798 -1.057549 -0.683552 -0.564090 1.331204 -0.096653 -1.234551 1.388026 0.404646 0.572556 -0.474492 1.247790 -0.773298 -1.001885 -0.956181 -0.981246 0.181457 -0.148936 1.314776 0.984383 -0.714551 -1.847870 -0.247061 -1.380380 0.533094 0.065604 0.863486 0.395996 1.847870 3.494692
288.000000 0.000000 88.000000 1.600000 12504.497000 44.000000 4.000000 0.184957 0.981683 0.045704 -0.983251 0.180818 0.089468 0.082917 -0.062239 1.001633 3.550851 -0.164779 -3.386072 1.556234 -0.007572 0.131034 0.000000 0.000000 0.000000 1.000000 0.189488 0.172382 0.348077 1.000000 0.614481 0.256625 1.000000 0.099996 1.000000 0.189488 0.172382 1.000000 0.209276 0.131347 1.000000 0.072924 0.088352 3.550636 -0.165010 -3.385626 1.556325 -0.007355 0.131073 -0.358741 1.371987 -1.013247 -3.076675 -1.774649 -0.594618 3.610997 -0.167815 -3.443182 2.474868 -0.011695 0.208432 -0.536024 1.622805 -1.086781 -3.024370 -2.465722 -1.162963 0.527558 0.537108 2.548280 2.557829 -1.954588 -3.975309 -1.784404 -3.805125 1.427029 1.256846 1.417480 1.247296 3.975309 7.475968
289.000000 0.000000 110.000000 1.570000 18450.607000 45.000000 4.000000 -0.980753 0.185752 0.060164 0.191057 0.981273 0.074722 -0.048392 0.083624 -0.994631 0.601227 -1.885199 1.283972 0.753768 -1.578223 0.301472 0.000000 0.000000 0.000000 1.000000 0.258099 0.098698 0.395880 1.000000 0.572328 0.346611 1.000000 0.173820 1.000000 0.258099 0.098698 1.000000 0.181489 0.185409 1.000000 0.014623 0.118852 0.601153 -1.885039 1.283886 0.753398 -1.578187 0.301482 0.236123 -1.021529 0.785406 1.338013 -0.900803 -1.571922 0.611373 -1.917084 1.305712 1.198053 -2.509633 0.479416 0.081707 -1.193757 1.112050 1.292752 -1.603576 -2.294233 -0.481418 1.567688 0.496788 2.545895 0.576845 -0.401361 0.968287 -0.009919 -0.095427 -0.486869 -2.144533 -2.535975 2.545895 5.702726
290.000000 0.000000 109.000000 1.420000 19422.631000 46.000000 4.000000 0.190226 0.978912 0.074463 -0.978971 0.185438 0.059624 0.047436 -0.083711 0.992428 -1.586601 0.253952 1.332649 1.401848 -0.489482 0.127756 0.000000 0.000000 0.000000 1.000000 0.259040 0.097853 0.395438 1.000000 0.568406 0.347203 1.000000 0.175027 1.000000 0.259040 0.097853 1.000000 0.181029 0.184895 1.000000 0.016585 0.117345 -1.590464 0.254473 1.335991 1.405335 -0.491016 0.128338 0.002560 -0.678311 0.675752 1.324027 -0.879513 -1.198819 -1.617501 0.258799 1.358703 2.234764 -0.780814 0.204083 -0.105049 -0.757670 0.862719 1.331104 -1.537772 -1.763207 -1.997101 -1.359569 -0.172424 0.465108 2.044052 0.219375 2.210686 0.386008 -0.046951 -0.213584 -0.684483 -0.851116 2.210686 4.871398
291.000000 0.000000 110.000000 0.770000 18180.399000 47.000000 4.000000 0.189704 0.979019 0.074392 -0.979320 0.185018 0.059013 0.046457 -0.084053 0.992068 -1.636454 -0.023930 1.660384 1.258570 -0.163014 0.127128 0.000000 0.000000 0.000000 1.000000 0.259004 0.096616 0.394073 1.000000 0.563433 0.348635 1.000000 0.176286 1.000000 0.259004 0.096616 1.000000 0.180361 0.184379 1.000000 0.018892 0.115628 -1.640406 -0.024369 1.664775 1.261660 -0.163516 0.127345 -0.244257 -0.343612 0.587869 1.593215 -0.726359 -1.019142 -1.668293 -0.024783 1.693076 2.006292 -0.260022 0.202504 -0.343309 -0.263419 0.606728 1.655629 -1.292391 -1.506626 -1.596179 -1.383872 0.041952 0.254259 2.108667 0.470536 2.274011 0.635880 -0.512487 -0.677831 -0.724795 -0.890139 2.274011 4.569132
292.000000 0.000000 111.000000 0.500000 22842.756000 48.000000 4.000000 0.189638 0.979009 0.074691 -0.980143 0.184524 0.059642 0.045842 -0.085190 0.993647 -0.836492 0.020220 0.816272 0.695077 0.246807 0.383501 0.000000 0.000000 0.000000 1.000000 0.257233 0.097712 0.398557 1.000000 0.563093 0.349076 1.000000 0.177434 1.000000 0.257233 0.097712 1.000000 0.179520 0.184920 1.000000 0.021539 0.114968 -0.838469 0.019867 0.818602 0.697011 0.247303 0.384493 -0.210073 0.218635 -0.008562 0.859299 -0.196309 -0.747429 -0.852723 0.020205 0.832518 1.108387 0.393262 0.611420 -0.328854 0.498850 -0.169996 0.926947 -0.382489 -1.126433 -0.648320 -0.969417 0.256674 -0.064423 0.890883 -0.014111 1.390105 0.485111 -0.242563 -0.741785 0.078534 -0.420688 1.390105 2.720658
293.000000 0.000000 110.000000 0.420000 23371.693000 49.000000 4.000000 0.189601 0.979004 0.074854 -0.980226 0.184663 0.059509 0.045678 -0.085362 0.993765 -0.761904 -0.005062 0.766966 0.701091 0.261561 0.305819 0.000000 0.000000 0.000000 1.000000 0.257830 0.097340 0.399071 1.000000 0.562739 0.349449 1.000000 0.177713 1.000000 0.257830 0.097340 1.000000 0.179212 0.185178 1.000000 0.022050 0.114734 -0.763939 -0.004547 0.768486 0.702683 0.262161 0.306595 -0.202288 0.240888 -0.038600 0.819904 -0.253392 -0.675958 -0.776926 -0.004625 0.781550 1.117406 0.416888 0.487548 -0.304447 0.517067 -0.212620 0.897161 -0.466541 -1.020851 -0.601276 -0.941664 0.311082 -0.029305 0.893384 -0.018975 1.291465 0.379107 -0.292108 -0.690189 0.048280 -0.349801 1.291465 2.608058
294.000000 0.000000 110.000000 0.390000 24840.561000 50.000000 4.000000 0.189918 0.978941 0.074875 -0.980289 0.184855 0.059456 0.045772 -0.085415 0.994078 -0.623838 0.039709 0.584129 0.778078 0.246352 0.380155 0.000000 0.000000 0.000000 1.000000 0.258403 0.097178 0.399889 1.000000 0.564334 0.349223 1.000000 0.178027 1.000000 0.258403 0.097178 1.000000 0.179805 0.185251 1.000000 0.021902 0.114964 -0.625485 0.039821 0.585664 0.780042 0.247055 0.381200 -0.190171 0.294305 -0.104134 0.661687 -0.295352 -0.768668 -0.636118 0.040498 0.595620 1.240422 0.392866 0.606184 -0.312242 0.585133 -0.272891 0.731320 -0.522626 -1.172960 -0.622241 -0.943015 0.390560 0.069786 0.761782 -0.251019 1.256729 0.243928 -0.139541 -0.634488 0.181233 -0.313714 1.256729 2.706091
295.000000 0.000000 109.000000 0.340000 21821.044000 51.000000 4.000000 0.190098 0.978892 0.075051 -0.980375 0.184968 0.059662 0.045872 -0.085673 0.994229 -0.525765 0.020501 0.505264 0.750866 0.263685 0.413144 0.000000 0.000000 0.000000 1.000000 0.258444 0.097529 0.401090 1.000000 0.565640 0.349577 1.000000 0.178037 1.000000 0.258444 0.097529 1.000000 0.179726 0.185738 1.000000 0.022024 0.115283 -0.526678 0.020216 0.506462 0.752381 0.264446 0.413818 -0.215215 0.350117 -0.134903 0.577287 -0.268138 -0.758748 -0.535632 0.020559 0.515072 1.196437 0.420522 0.658054 -0.343175 0.653235 -0.310060 0.644169 -0.470764 -1.166517 -0.543830 -0.887185 0.433057 0.089702 0.648742 -0.328144 1.186040 0.209154 -0.104912 -0.642211 0.238443 -0.298856 1.186040 2.636842
296.000000 0.000000 100.000000 2.810000 18765.234000 52.000000 4.000000 0.184536 0.979668 0.078719 -0.983093 0.181961 0.050609 0.035610 -0.089473 0.995656 0.458406 -0.611935 0.153529 0.447960 1.348604 -0.411580 0.000000 0.000000 0.000000 1.000000 0.267030 0.076643 0.402854 1.000000 0.522166 0.361966 1.000000 0.191893 1.000000 0.267030 0.076643 1.000000 0.166594 0.187842 1.000000 0.046487 0.097270 0.459923 -0.613608 0.153685 0.448938 1.351544 -0.412505 -0.439020 1.541645 -1.102625 0.431770 -0.498832 0.419945 0.467741 -0.624039 0.156298 0.713901 2.149225 -0.655965 -0.368129 2.263442 -1.895313 0.760627 -0.741364 0.567280 1.031686 -0.723149 1.614584 -0.140251 0.432099 -0.150798 -0.103494 -0.686392 -1.463786 -0.928192 0.291049 0.826643 1.614584 4.198368
297.000000 0.000000 109.000000 0.440000 26439.115000 53.000000 4.000000 0.186150 0.979233 0.080315 -0.982157 0.181651 0.050449 0.035944 -0.089257 0.995280 0.002733 -0.084233 0.081499 0.650820 0.388017 0.448315 0.000000 0.000000 0.000000 1.000000 0.267196 0.075703 0.407375 1.000000 0.530686 0.363862 1.000000 0.193895 1.000000 0.267196 0.075703 1.000000 0.167004 0.191848 1.000000 0.045348 0.098139 0.002920 -0.084407 0.081488 0.652744 0.388904 0.449459 -0.285670 0.635421 -0.349751 0.159477 -0.236493 -0.633256 0.002969 -0.085842 0.082873 1.037993 0.618435 0.714730 -0.407732 0.995554 -0.587822 0.231836 -0.373611 -1.016399 -0.135026 -0.639977 0.712491 0.207541 0.164592 -0.682926 0.748167 -0.099351 -0.029565 -0.613140 0.475385 -0.108190 0.748167 2.435890
298.000000 0.000000 118.000000 0.430000 29837.593000 54.000000 4.000000 0.186184 0.979216 0.080447 -0.982157 0.181729 0.050481 0.035931 -0.089387 0.995352 0.035360 -0.067208 0.031847 0.642623 0.382934 0.423820 0.000000 0.000000 0.000000 1.000000 0.267382 0.075706 0.407946 1.000000 0.531008 0.364120 1.000000 0.193966 1.000000 0.267382 0.075706 1.000000 0.166832 0.192140 1.000000 0.045530 0.098179 0.035564 -0.067224 0.031660 0.643794 0.383705 0.424871 -0.258573 0.627391 -0.368818 0.122460 -0.246954 -0.609404 0.036169 -0.068367 0.032198 1.023761 0.610168 0.675630 -0.374749 0.979773 -0.605024 0.195001 -0.388181 -0.979002 -0.126172 -0.624372 0.709725 0.211525 0.140503 -0.695395 0.692152 -0.143745 -0.014330 -0.565980 0.483869 -0.067780 0.709725 2.375107
299.000000 0.000000 117.000000 0.330000 31081.609000 55.000000 4.000000 0.186217 0.979202 0.080540 -0.982168 0.181774 0.050461 0.035927 -0.089405 0.995371 0.048175 -0.071936 0.023761 0.653541 0.344054 0.418734 0.000000 0.000000 0.000000 1.000000 0.267549 0.075620 0.408205 1.000000 0.531208 0.364220 1.000000 0.194022 1.000000 0.267549 0.075620 1.000000 0.166732 0.192337 1.000000 0.045554 0.098183 0.048344 -0.072395 0.024050 0.655109 0.344612 0.419743 -0.262606 0.597983 -0.335377 0.102020 -0.265988 -0.614424 0.049166 -0.073625 0.024459 1.041754 0.548002 0.667475 -0.378550 0.929804 -0.551255 0.167836 -0.417324 -0.988489 -0.151444 -0.598886 0.699145 0.251703 0.142712 -0.707876 0.687703 -0.162886 0.008732 -0.536259 0.456173 -0.088817 0.707876 2.346464
300.000000 0.000000 117.000000 0.320000 32304.650000 56.000000 4.000000 0.186341 0.979164 0.080713 -0.982241 0.181893 0.050474 0.035897 -0.089580 0.995624 0.168135 -0.046473 -0.121663 0.647786 0.331648 0.426356 0.000000 0.000000 0.000000 1.000000 0.267891 0.075548 0.409237 1.000000 0.531928 0.364402 1.000000 0.194277 1.000000 0.267891 0.075548 1.000000 0.166668 0.192701 1.000000 0.045817 0.098218 0.168544 -0.046316 -0.122228 0.649660 0.332677 0.427641 -0.236194 0.618667 -0.382473 -0.027226 -0.273925 -0.608415 0.171409 -0.047103 -0.124306 1.033090 0.529023 0.680035 -0.353230 0.945236 -0.592006 0.033133 -0.421357 -0.984945 -0.116577 -0.548523 0.726938 0.294992 0.023409 -0.820106 0.578655 -0.264860 0.093168 -0.462078 0.525114 -0.030132 0.820106 2.345068
301.000000 0.000000 118.000000 0.380000 26881.037000 57.000000 4.000000 0.981994 -0.182020 -0.050562 -0.035845 0.089423 -0.995370 0.186360 0.978993 0.080547 -0.051463 -0.073224 0.124687 -0.345793 -0.368181 0.574506 0.000000 0.000000 0.000000 1.000000 0.268037 0.075810 0.408633 1.000000 0.531786 0.364273 1.000000 0.194505 1.000000 0.268037 0.075810 1.000000 0.167030 0.192456 1.000000 0.045694 0.098081 -0.051490 -0.073562 0.125052 -0.345290 -0.368267 0.574455 -0.216121 0.587537 -0.371416 0.020954 -0.237566 -0.524299 -0.052365 -0.074812 0.127177 -0.549080 -0.585617 0.913499 -0.317661 0.902886 -0.585225 0.085315 -0.366696 -0.848604 -0.005752 0.472402 -0.454074 0.024081 -0.523797 -0.075476 0.222071 0.670393 0.529550 -0.216319 0.051395 -0.694474 0.694474 2.115070
302.000000 0.000000 117.000000 0.520000 22602.716000 58.000000 4.000000 0.186506 0.979148 0.080528 -0.982239 0.182261 0.050680 0.035947 -0.089430 0.995710 0.218214 -0.072131 -0.146083 0.572264 0.339336 0.326450 0.000000 0.000000 0.000000 1.000000 0.268344 0.076028 0.408901 1.000000 0.532438 0.364019 1.000000 0.194464 1.000000 0.268344 0.076028 1.000000 0.167252 0.192429 1.000000 0.045488 0.098258 0.218168 -0.071961 -0.146207 0.572199 0.339296 0.326106 -0.216924 0.605033 -0.388109 -0.049971 -0.273325 -0.476315 0.221877 -0.073184 -0.148693 0.909911 0.539549 0.518574 -0.309396 0.910208 -0.600812 0.016152 -0.415853 -0.781366 -0.030742 -0.471281 0.712197 0.271658 0.008478 -0.734461 0.431892 -0.311047 0.022264 -0.401151 0.462803 0.039389 0.734461 2.068563
303.000000 0.000000 109.000000 0.720000 15915.337000 59.000000 4.000000 0.186418 0.979184 0.080297 -0.982266 0.182370 0.050727 0.036058 -0.089214 0.995745 0.241110 -0.098197 -0.142914 0.588083 0.339714 0.232521 0.000000 0.000000 0.000000 1.000000 0.268417 0.076212 0.408113 1.000000 0.532055 0.363326 1.000000 0.194086 1.000000 0.268417 0.076212 1.000000 0.167466 0.191914 1.000000 0.045015 0.098343 0.240663 -0.097789 -0.142874 0.588023 0.339876 0.232768 -0.208221 0.597703 -0.389483 -0.041779 -0.340831 -0.406636 0.244755 -0.099452 -0.145303 0.935075 0.540470 0.370147 -0.281737 0.890122 -0.608386 0.033967 -0.520755 -0.675044 -0.020575 -0.461867 0.742910 0.301618 0.071390 -0.692095 0.373615 -0.389871 -0.050815 -0.353039 0.390477 0.088253 0.742910 2.011668
304.000000 0.000000 86.000000 1.010000 6375.976000 60.000000 4.000000 0.186388 0.979174 0.080482 -0.981922 0.182452 0.050716 0.036317 -0.089022 0.995981 0.208547 0.193288 -0.401835 0.694768 0.120432 0.142149 0.000000 0.000000 0.000000 1.000000 0.268675 0.076089 0.408732 1.000000 0.533061 0.362652 1.000000 0.193528 1.000000 0.268675 0.076089 1.000000 0.167193 0.192261 1.000000 0.044270 0.098757 0.208626 0.193474 -0.402100 0.694406 0.120267 0.142412 0.093298 0.295899 -0.389196 -0.200874 -0.486952 -0.486751 0.212173 0.196763 -0.408936 1.104245 0.191249 0.226463 0.037612 0.465614 -0.503226 -0.155511 -0.763277 -0.768244 -0.366438 -0.522592 0.535174 0.379020 0.104787 -0.796826 0.289693 -0.611919 0.261652 0.076745 0.417805 0.232899 0.796826 2.073185
305.000000 0.000000 116.000000 0.720000 29603.955000 0.000000 5.000000 -0.194661 0.832805 -0.518211 0.690115 -0.257368 -0.674505 -0.697249 -0.488861 -0.525195 -0.263348 1.012257 -0.748908 0.559460 -0.381675 -0.431516 0.000000 0.000000 0.000000 0.006248 1.000000 0.480300 0.148958 0.873826 1.000000 1.000000 0.642648 0.261647 0.006248 1.000000 0.480300 0.766164 0.724319 1.000000 0.168912 0.012341 1.000000 -0.263097 1.012162 -0.749065 0.559251 -0.381676 -0.431564 -0.417199 0.837196 -0.419996 -0.026320 -0.242756 -0.941692 -0.267569 1.029369 -0.761799 0.889321 -0.606942 -0.686273 -0.725569 1.330957 -0.605388 -0.187012 -0.191436 -1.040284 -1.140319 -0.644754 -0.414192 0.081374 0.441465 -0.284662 -0.118875 -0.845002 0.698854 1.259194 0.203288 0.763628 1.259194 2.730938
306.000000 0.000000 113.000000 0.330000 27531.712000 1.000000 5.000000 -0.195333 0.833227 -0.517279 -0.697440 -0.488520 -0.524942 -0.689612 0.256964 0.675212 -0.310010 -0.628700 0.938711 -0.492811 0.231177 -0.363298 0.000000 0.000000 0.000000 0.007755 1.000000 0.482254 0.148314 0.870000 1.000000 1.000000 0.646951 0.262429 0.007755 1.000000 0.482254 0.769807 0.728432 1.000000 0.170194 0.013137 1.000000 -0.309854 -0.628921 0.938775 -0.492973 0.230765 -0.363228 -0.380105 0.717979 -0.337875 0.067249 -0.342029 -0.778500 -0.315121 -0.639612 0.954734 -0.783926 0.366963 -0.577606 -0.679322 1.126508 -0.447186 -0.040907 -0.358426 -0.835112 0.602321 0.302698 -0.037752 -0.337376 0.434186 1.074259 -0.037427 0.602646 -1.036508 -0.564895 -0.736884 -0.265271 1.074259 2.319132
307.000000 0.000000 120.000000 0.350000 34268.377000 2.000000 5.000000 -0.195146 0.833215 -0.517368 -0.697558 -0.488310 -0.525012 -0.689659 0.257099 0.674938 -0.344053 -0.678720 1.022773 -0.592739 0.194936 -0.441477 0.000000 0.000000 0.000000 0.007563 1.000000 0.481012 0.148009 0.870523 1.000000 1.000000 0.646139 0.262665 0.007563 1.000000 0.481012 0.769313 0.726894 1.000000 0.170087 0.013215 1.000000 -0.343501 -0.679384 1.022886 -0.592714 0.195247 -0.441357 -0.492208 0.832870 -0.340662 0.090066 -0.425834 -0.825658 -0.349341 -0.690934 1.040275 -0.942535 0.310482 -0.701846 -0.865954 1.306448 -0.440494 -0.018885 -0.474738 -0.875824 0.650997 0.397489 -0.118580 -0.372087 0.469048 1.238624 -0.104007 0.665569 -1.120044 -0.546989 -0.866537 -0.293482 1.238624 2.637134
308.000000 0.000000 118.000000 0.340000 33793.925000 3.000000 5.000000 -0.195107 0.833281 -0.517277 -0.697466 -0.488336 -0.525074 -0.689629 0.257089 0.674867 -0.374100 -0.690418 1.064517 -0.547614 0.158092 -0.383789 0.000000 0.000000 0.000000 0.007421 1.000000 0.480862 0.148102 0.870497 1.000000 1.000000 0.646090 0.263016 0.007421 1.000000 0.480862 0.769694 0.727133 1.000000 0.170010 0.013311 1.000000 -0.373880 -0.690534 1.064415 -0.547324 0.158050 -0.383975 -0.429685 0.760609 -0.330924 0.147691 -0.433639 -0.837014 -0.380236 -0.702273 1.082510 -0.870355 0.251330 -0.610597 -0.774147 1.186931 -0.412784 0.062898 -0.477811 -0.881364 0.589397 0.384187 -0.121245 -0.326455 0.491118 1.201760 -0.007433 0.703209 -1.080515 -0.581965 -0.875305 -0.376754 1.201760 2.508971
309.000000 0.000000 116.000000 0.360000 32208.336000 4.000000 5.000000 -0.195034 0.833345 -0.517202 -0.697480 -0.488121 -0.525231 -0.689683 0.256946 0.674872 -0.376888 -0.680743 1.057631 -0.579786 0.205628 -0.455289 0.000000 0.000000 0.000000 0.007330 1.000000 0.480475 0.148119 0.868982 1.000000 1.000000 0.645829 0.263502 0.007330 1.000000 0.480475 0.770301 0.727128 1.000000 0.169906 0.013877 1.000000 -0.376957 -0.680649 1.057606 -0.579316 0.205539 -0.454783 -0.465335 0.840626 -0.375291 0.089859 -0.446162 -0.841121 -0.383365 -0.692220 1.075585 -0.921228 0.326848 -0.723195 -0.831721 1.313133 -0.481411 -0.029043 -0.498602 -0.892552 0.635615 0.368744 -0.116565 -0.383435 0.514767 1.266947 -0.075719 0.676460 -1.150382 -0.559895 -0.883512 -0.293025 1.266947 2.666466
310.000000 0.000000 110.000000 0.440000 20375.601000 5.000000 5.000000 -0.194802 0.833385 -0.517225 -0.697445 -0.488140 -0.525075 -0.689673 0.257058 0.674725 -0.435474 -0.641711 1.077186 -0.626017 0.204237 -0.318448 0.000000 0.000000 0.000000 0.007410 1.000000 0.480293 0.147967 0.870380 1.000000 1.000000 0.644907 0.263929 0.007410 1.000000 0.480293 0.769709 0.725680 1.000000 0.169692 0.013842 1.000000 -0.435353 -0.641728 1.077081 -0.625491 0.204353 -0.318645 -0.447100 0.844230 -0.397130 0.214401 -0.360433 -0.839174 -0.442754 -0.652637 1.095391 -0.994656 0.324962 -0.506709 -0.817660 1.306214 -0.488555 0.155604 -0.354959 -0.897601 0.624416 0.359086 -0.187717 -0.453048 0.428742 1.240875 0.015015 0.827149 -1.053158 -0.639432 -0.787828 -0.374101 1.240875 2.605352
311.000000 0.000000 109.000000 0.600000 13129.765000 6.000000 5.000000 -0.193961 0.833388 -0.517536 -0.696317 -0.487812 -0.527718 -0.691170 0.256848 0.672522 -0.455566 -1.107334 1.562900 -0.541097 -0.028965 -0.816100 0.000000 0.000000 0.000000 0.001621 1.000000 0.471830 0.152029 0.865968 1.000000 1.000000 0.638954 0.266908 0.001621 1.000000 0.471830 0.771739 0.728280 1.000000 0.166404 0.016117 1.000000 -0.455378 -1.107624 1.563003 -0.540786 -0.029097 -0.816273 -0.549650 0.846991 -0.297340 0.064488 -0.993814 -1.162929 -0.463120 -1.126454 1.589574 -0.859958 -0.046270 -1.298037 -0.987305 1.338381 -0.351076 -0.128995 -1.275637 -1.158921 0.602992 0.640771 -0.099161 -0.061382 1.016854 1.719006 -0.042989 0.659164 -1.619845 -0.560003 -1.657625 -0.597782 1.719006 3.646216
312.000000 0.000000 112.000000 0.330000 17916.414000 7.000000 5.000000 -0.193836 0.833379 -0.517597 -0.695165 -0.488345 -0.527913 -0.692437 0.256259 0.672724 -0.313467 -0.527426 0.840893 -0.538878 0.210945 -0.509116 0.000000 0.000000 0.000000 0.000786 1.000000 0.473831 0.156323 0.863595 1.000000 1.000000 0.636078 0.268070 0.000786 1.000000 0.473831 0.772230 0.733504 1.000000 0.163943 0.017554 1.000000 -0.313245 -0.527076 0.840320 -0.538837 0.210952 -0.508870 -0.460712 0.823412 -0.362700 -0.018577 -0.413051 -0.673027 -0.318570 -0.536036 0.854606 -0.856859 0.335456 -0.809204 -0.811762 1.289437 -0.477675 -0.167688 -0.488199 -0.720963 0.575541 0.301642 -0.124082 -0.397980 0.459492 1.159114 -0.201221 0.498402 -1.035032 -0.374320 -0.761134 -0.100422 1.159114 2.486646
313.000000 0.000000 110.000000 0.330000 16105.963000 8.000000 5.000000 -0.193793 0.833334 -0.517685 -0.695020 -0.488416 -0.527895 -0.692505 0.256376 0.672596 -0.341651 -0.479417 0.821068 -0.514423 0.172640 -0.479936 0.000000 0.000000 0.000000 0.000652 1.000000 0.473548 0.156682 0.864479 1.000000 1.000000 0.635668 0.267964 0.000652 1.000000 0.473548 0.771732 0.733565 1.000000 0.163709 0.017372 1.000000 -0.341307 -0.479809 0.821116 -0.514433 0.172594 -0.479882 -0.427059 0.787735 -0.360676 0.017319 -0.417672 -0.627647 -0.347109 -0.487966 0.835075 -0.818052 0.274459 -0.763109 -0.765489 1.224764 -0.459275 -0.114464 -0.497101 -0.667950 0.503521 0.279426 -0.164416 -0.388511 0.460194 1.128131 -0.162881 0.505055 -0.963715 -0.340639 -0.739620 -0.116544 1.128131 2.358927
314.000000 0.000000 107.000000 0.580000 12213.224000 9.000000 5.000000 -0.193817 0.833289 -0.517750 -0.694469 -0.488523 -0.527597 -0.692134 0.257077 0.671277 -0.826914 -0.477392 1.304305 -0.458857 -0.407635 -0.341288 0.000000 0.000000 0.000000 0.000147 1.000000 0.470783 0.157118 0.871271 1.000000 1.000000 0.636156 0.267916 0.000147 1.000000 0.470783 0.769395 0.733513 1.000000 0.163661 0.016224 1.000000 -0.827077 -0.476967 1.304044 -0.459035 -0.407974 -0.341067 -0.275495 0.601469 -0.325974 0.611088 -0.875402 -0.622741 -0.841137 -0.485075 1.326212 -0.729957 -0.648761 -0.542365 -0.648373 0.843707 -0.195334 0.689741 -1.108352 -0.556177 -0.112213 0.417498 -0.708221 -0.178510 0.808233 1.404240 0.365393 0.961401 -0.696019 -0.253180 -1.225730 -0.782891 1.404240 2.792156
315.000000 0.000000 88.000000 2.720000 6603.713000 10.000000 5.000000 -0.194324 0.833231 -0.517653 -0.692119 -0.489773 -0.525457 -0.689756 0.261301 0.663277 -3.512854 -1.045886 4.558740 -0.454296 -4.275922 0.805134 0.000000 0.000000 0.000000 0.004819 1.000000 0.455937 0.157917 0.916618 1.000000 1.000000 0.641555 0.267950 0.004819 1.000000 0.455937 0.756279 0.732376 1.000000 0.164654 0.008302 1.000000 -3.512714 -1.045792 4.558506 -0.454134 -4.275678 0.804988 0.221965 -0.580065 0.358100 4.644757 -3.660710 -1.005241 -3.572430 -1.063570 4.636000 -0.722163 -6.799183 1.280093 -0.549999 -1.477965 2.027964 6.294898 -4.804660 -0.267879 -3.505171 2.046339 -4.094815 1.456695 2.533660 3.123304 3.578851 4.168495 0.971510 -0.073681 -4.579999 -5.625190 5.625190 14.079987
316.000000 0.000000 117.000000 0.830000 18579.452000 11.000000 5.000000 -0.243385 0.080541 0.966580 -0.948716 -0.230242 -0.219970 0.204341 -0.969305 0.133420 0.094782 -0.635386 0.540603 0.017792 -0.579622 0.128925 0.000000 0.000000 0.000000 1.000000 0.078589 0.504146 0.046464 0.877911 1.000000 0.039494 1.000000 0.037201 1.000000 0.078589 0.504146 1.000000 0.283307 0.190916 1.000000 0.164683 0.307027 0.094861 -0.635156 0.540295 0.017629 -0.579900 0.129430 -0.431781 0.685715 -0.253934 -0.276605 -0.022976 -0.517608 0.096473 -0.645953 0.549480 0.028033 -0.922157 0.205820 -0.375591 0.968016 -0.592425 -0.315410 -0.066289 -0.662830 -0.084819 0.668119 -0.061930 0.691008 0.112358 0.089469 0.280410 0.257521 -0.027539 -0.195590 -0.780477 -0.948528 0.948528 1.942499
317.000000 0.000000 117.000000 0.660000 21157.053000 12.000000 5.000000 -0.204847 0.969635 -0.133589 -0.949646 -0.230749 -0.219655 -0.243837 0.080189 0.967287 0.807937 -0.850097 0.042161 -0.292340 0.757032 -0.066857 0.000000 0.000000 0.000000 1.000000 0.076697 0.505218 0.046083 0.876212 1.000000 0.039491 1.000000 0.037051 1.000000 0.076697 0.505218 1.000000 0.283928 0.191251 1.000000 0.165587 0.306591 0.807570 -0.849588 0.042018 -0.292005 0.756663 -0.066881 -0.812223 1.117855 -0.305631 -0.348534 0.266297 -0.395472 0.821299 -0.864031 0.042732 -0.464346 1.203245 -0.106354 -0.874907 1.615167 -0.740260 -0.341733 0.368099 -0.415688 1.368824 0.386379 0.989687 0.007242 -0.463998 -0.084862 -0.550836 -0.171699 -0.904826 -0.817988 0.077620 0.164457 1.368824 2.675545
318.000000 0.000000 112.000000 1.120000 17843.245000 13.000000 5.000000 -0.205078 0.969684 -0.132874 -0.950224 -0.231744 -0.218470 -0.244119 0.080027 0.968249 1.307193 -0.865478 -0.441715 -0.938981 0.493329 0.407392 0.000000 0.000000 0.000000 1.000000 0.071496 0.506961 0.044966 0.876148 1.000000 0.039470 1.000000 0.037090 1.000000 0.071496 0.506961 1.000000 0.284882 0.190046 1.000000 0.165651 0.306823 1.306979 -0.865236 -0.441743 -0.938956 0.492894 0.407009 -0.973025 0.952290 0.020735 -0.548903 1.159963 -0.205866 1.329197 -0.879945 -0.449252 -1.493129 0.783800 0.647225 -1.118652 1.358410 -0.239758 -0.393672 1.699443 -0.118192 1.831431 1.191461 0.612296 -0.027674 -1.599845 -0.380711 -1.071387 0.147747 -0.231586 -0.760043 0.408384 -0.120073 1.831431 3.728588
319.000000 0.000000 109.000000 1.460000 16114.011000 14.000000 5.000000 -0.204847 0.969723 -0.132946 -0.950539 -0.234466 -0.217713 -0.244092 0.080760 0.967855 1.456252 -1.484858 0.028605 -1.178165 0.172922 1.843342 0.000000 0.000000 0.000000 1.000000 0.065902 0.512873 0.048408 0.875051 1.000000 0.039917 1.000000 0.037202 1.000000 0.065902 0.512873 1.000000 0.283716 0.190775 1.000000 0.162547 0.309605 1.455786 -1.484343 0.028556 -1.177604 0.173196 1.842691 -1.065281 0.384182 0.681099 -0.014988 2.231211 -1.059375 1.480535 -1.509577 0.029042 -1.872625 0.275416 2.930247 -0.967925 0.330940 0.636984 0.370417 3.438937 -1.309648 2.097642 1.872766 0.568650 0.343774 -2.553334 -1.024342 -0.160797 1.368195 0.455692 -1.936845 0.680568 -1.711969 2.553334 6.573755
320.000000 0.000000 107.000000 1.850000 14601.269000 15.000000 5.000000 -0.204570 0.969773 -0.133009 -0.950271 -0.235982 -0.217168 -0.243847 0.081508 0.967388 1.306674 -1.626208 0.319534 -1.194877 -0.135041 2.768413 0.000000 0.000000 0.000000 1.000000 0.062822 0.515907 0.051206 0.874418 1.000000 0.040234 1.000000 0.037155 1.000000 0.062822 0.515907 1.000000 0.282810 0.191364 1.000000 0.159904 0.311757 1.306069 -1.625875 0.319806 -1.194455 -0.134746 2.767461 -0.846823 -0.218259 1.065082 0.419160 2.799905 -1.537780 1.328272 -1.653515 0.325243 -1.899423 -0.214272 4.400817 -0.554803 -0.658292 1.213095 0.941213 4.383560 -2.028585 1.905269 2.080222 0.354397 0.529350 -2.981547 -1.430675 0.611705 2.162577 1.076278 -2.516974 0.901325 -2.691927 2.981547 8.716022
321.000000 0.000000 103.000000 2.500000 12473.176000 16.000000 5.000000 -0.204033 0.969924 -0.132733 -0.949611 -0.238020 -0.216384 -0.243553 0.082293 0.967218 1.158899 -1.482672 0.323772 -1.196872 -0.574128 4.174949 0.000000 0.000000 0.000000 1.000000 0.058079 0.519948 0.053761 0.874434 1.000000 0.040557 1.000000 0.037435 1.000000 0.058079 0.519948 1.000000 0.281841 0.191294 1.000000 0.157074 0.314274 1.158596 -1.482133 0.323537 -1.196277 -0.573639 4.173539 -0.194556 -1.252257 1.446813 0.835854 3.741155 -2.110903 1.178292 -1.507329 0.329037 -1.902319 -0.912200 6.636762 0.411049 -2.274206 1.863157 1.561338 5.889701 -2.974786 1.500615 2.245423 -0.052622 0.692186 -3.832772 -2.279535 1.586122 3.139359 2.332157 -3.086736 1.587349 -3.831544 3.832772 12.294129
322.000000 0.000000 96.000000 3.290000 9898.688000 17.000000 5.000000 -0.203232 0.970179 -0.132094 -0.947672 -0.240942 -0.215079 -0.243103 0.083718 0.966970 0.644394 -0.634306 -0.010088 -1.115564 -1.461567 6.365438 0.000000 0.000000 0.000000 1.000000 0.050914 0.525401 0.057560 0.872777 1.000000 0.041060 1.000000 0.037870 1.000000 0.050914 0.525401 1.000000 0.281229 0.190685 1.000000 0.152694 0.318687 0.644189 -0.633867 -0.010322 -1.115193 -1.460971 6.362507 1.380123 -3.297024 1.916901 1.468968 5.165119 -2.684566 0.655141 -0.644643 -0.010498 -1.773380 -2.323236 10.117658 2.503167 -5.359099 2.855932 2.515169 8.158897 -4.106947 0.306156 2.203071 -1.141802 0.755112 -5.126242 -3.678283 3.134792 4.582750 4.820085 -3.440948 2.923171 -5.337862 5.337862 18.275537
323.000000 0.000000 86.000000 4.780000 7920.412000 18.000000 5.000000 -0.202125 0.970527 -0.131233 -0.944643 -0.244159 -0.212997 -0.242210 0.085850 0.965961 -0.474488 0.685952 -0.211465 -1.049985 -2.778176 9.071716 0.000000 0.000000 0.000000 1.000000 0.042225 0.530748 0.063703 0.870242 1.000000 0.041351 1.000000 0.038270 1.000000 0.042225 0.530748 1.000000 0.280358 0.190152 1.000000 0.146410 0.324538 -0.473855 0.685346 -0.211491 -1.049209 -2.776681 9.067359 3.540266 -6.073244 2.532977 2.626820 6.826314 -3.159375 -0.481910 0.696997 -0.215087 -1.668451 -4.415478 14.418914 5.298639 -9.527571 4.228932 4.104732 10.875353 -5.203678 -1.602756 2.002467 -2.965041 0.640182 -6.458709 -5.096424 5.314285 6.676570 8.061465 -3.711529 4.456242 -7.316752 8.061465 26.300233
324.000000 0.000000 82.000000 5.510000 6281.553000 19.000000 5.000000 -0.201648 0.970620 -0.131279 -0.942989 -0.245302 -0.212667 -0.241867 0.086954 0.963793 -1.593939 0.880679 0.713260 -0.898158 -3.359499 10.077966 0.000000 0.000000 0.000000 1.000000 0.041320 0.532936 0.068901 0.866377 1.000000 0.040867 1.000000 0.038752 1.000000 0.041320 0.532936 1.000000 0.279667 0.190881 1.000000 0.143592 0.327463 -1.593002 0.880185 0.712817 -0.897209 -3.357622 10.072318 4.154508 -7.094545 2.940037 3.848230 7.077703 -3.524135 -1.620083 0.895149 0.724935 -1.426741 -5.339291 16.016999 6.175651 -11.145327 4.969676 5.494474 11.465545 -5.821370 -2.624131 1.735382 -3.789060 0.570453 -6.164028 -4.999099 6.913797 8.078727 8.788159 -4.289667 4.428646 -8.649180 8.788159 29.448105
325.000000 0.000000 108.000000 0.980000 25300.590000 20.000000 5.000000 0.599384 -0.590957 0.539915 -0.144878 -0.741686 -0.653044 0.786963 0.314418 -0.529969 -0.568595 0.656286 -0.087691 0.560923 0.127263 0.561950 0.000000 0.000000 0.000000 0.292139 1.000000 0.386103 1.000000 0.009204 0.198002 0.223303 1.000000 0.048902 0.292139 1.000000 0.386103 0.279909 0.723423 1.000000 0.125660 0.012252 1.000000 -0.568686 0.656198 -0.087511 0.561216 0.127102 0.562154 -0.349544 0.867163 -0.517619 -0.043805 -0.227106 -0.635159 -0.578354 0.667353 -0.088999 0.892446 0.202118 0.893937 -0.415443 1.015086 -0.599643 -0.103240 -0.231483 -1.088483 -0.790383 -0.955411 -0.061704 -0.226733 0.199170 -0.529509 0.929066 0.200387 0.591213 -0.138683 0.756242 0.026345 0.955411 2.467987
326.000000 0.000000 115.000000 0.890000 33516.764000 21.000000 5.000000 -0.599078 0.591070 -0.540132 -0.787067 -0.313507 0.529688 0.145322 0.742017 0.652592 -0.681672 0.154444 0.527228 0.669447 0.481689 -0.053390 0.000000 0.000000 0.000000 0.294266 1.000000 0.387885 1.000000 0.007581 0.199458 0.223872 1.000000 0.048250 0.294266 1.000000 0.387885 0.280555 0.726835 1.000000 0.124706 0.012370 1.000000 -0.682239 0.154382 0.527857 0.669939 0.481615 -0.053698 -0.425851 0.745405 -0.319553 0.107494 -0.425574 -0.674832 -0.693837 0.157007 0.536830 1.065336 0.765865 -0.085390 -0.598233 0.892863 -0.294629 0.125519 -0.449517 -1.134521 -0.469614 -1.094940 0.400229 -0.225097 0.972200 0.102356 0.902479 0.032635 -0.502586 -0.432865 0.122740 0.192461 1.094940 2.525414
327.000000 0.000000 111.000000 0.920000 25430.658000 22.000000 5.000000 -0.598883 0.591244 -0.540157 -0.787348 -0.313424 0.530000 0.145173 0.742085 0.652594 -0.551605 -0.076629 0.628234 0.508348 0.346551 0.032173 0.000000 0.000000 0.000000 0.294262 1.000000 0.388817 1.000000 0.007544 0.199229 0.224535 1.000000 0.048227 0.294262 1.000000 0.388817 0.280791 0.727474 1.000000 0.124605 0.013125 1.000000 -0.551493 -0.076669 0.628162 0.508489 0.346627 0.032351 -0.378289 0.783422 -0.405133 0.091148 -0.223922 -0.461651 -0.560868 -0.077973 0.638841 0.808599 0.551206 0.051444 -0.468543 0.897563 -0.429020 0.112789 -0.228056 -0.809541 -0.302221 -0.752279 0.357997 -0.092061 0.798886 0.138668 0.840890 0.180672 -0.496665 -0.538669 -0.046607 -0.088611 0.840890 1.993509
328.000000 0.000000 106.000000 0.980000 20751.396000 23.000000 5.000000 -0.598628 0.591374 -0.540298 -0.787711 -0.313186 0.530283 0.145273 0.742459 0.652375 -0.380839 -0.267699 0.648538 0.509565 0.185724 0.087670 0.000000 0.000000 0.000000 0.294471 1.000000 0.389799 1.000000 0.006578 0.199802 0.225372 1.000000 0.047919 0.294471 1.000000 0.389799 0.281464 0.729729 1.000000 0.124064 0.013822 1.000000 -0.381376 -0.267688 0.649064 0.509873 0.185694 0.087729 -0.355450 0.771652 -0.416203 0.190794 -0.016028 -0.370372 -0.387859 -0.272238 0.660098 0.810800 0.295290 0.139507 -0.399551 0.867152 -0.467600 0.286203 0.003765 -0.668690 -0.257658 -0.498761 0.404357 0.163254 0.701881 0.039865 0.815788 0.153773 -0.444222 -0.558130 -0.203119 -0.317027 0.815788 1.811790
329.000000 0.000000 102.000000 1.370000 16751.679000 24.000000 5.000000 -0.597831 0.591798 -0.540716 -0.787724 -0.312589 0.530171 0.145457 0.743441 0.651615 -0.372590 -0.023114 0.395704 0.752856 -0.334644 0.367043 0.000000 0.000000 0.000000 0.296160 1.000000 0.391211 1.000000 0.003552 0.201573 0.226652 1.000000 0.047741 0.296160 1.000000 0.391211 0.283151 0.734035 1.000000 0.122853 0.014813 1.000000 -0.372821 -0.022850 0.395671 0.753456 -0.334730 0.367583 0.092800 0.474347 -0.567146 0.747959 0.028243 -0.353581 -0.379159 -0.023238 0.402397 1.198146 -0.532287 0.584531 0.227442 0.534919 -0.762362 1.167589 0.139520 -0.609435 -0.851750 -0.417140 0.126532 0.561143 0.569576 -0.408706 1.046844 0.068562 0.282174 -0.195094 -0.152437 -0.629704 1.046844 2.577018
330.000000 0.000000 100.000000 1.240000 12125.067000 25.000000 5.000000 -0.598219 0.591528 -0.540582 -0.787977 -0.312900 0.530575 0.145470 0.743125 0.651220 -0.366267 -0.527379 0.893646 0.816676 -0.259753 0.262219 0.000000 0.000000 0.000000 0.294611 1.000000 0.390920 1.000000 0.003530 0.201498 0.226327 1.000000 0.047473 0.294611 1.000000 0.390920 0.284163 0.733679 1.000000 0.123223 0.014537 1.000000 -0.366522 -0.527298 0.893820 0.816812 -0.259484 0.262289 -0.334305 0.982841 -0.648535 0.707533 0.241388 -0.317678 -0.372753 -0.536262 0.909015 1.298894 -0.412631 0.417091 -0.279680 1.067204 -0.787524 1.115720 0.337527 -0.616722 -0.631975 -0.295063 0.428568 0.765480 0.883274 -0.177269 1.223828 0.163285 -0.251299 -0.591853 -0.588211 -0.928765 1.223828 2.823706
331.000000 0.000000 112.000000 0.650000 22735.335000 26.000000 5.000000 0.982490 -0.174361 -0.065656 0.180636 0.978569 0.094424 0.049192 -0.105632 0.993181 -0.144238 0.283333 -0.139096 0.351306 -0.770550 -0.325600 0.000000 0.000000 0.000000 1.000000 0.233401 0.103230 0.469680 1.000000 0.569219 0.387441 1.000000 0.150373 1.000000 0.233401 0.103230 1.000000 0.123315 0.225331 1.000000 0.044088 0.129690 -0.144096 0.283291 -0.139195 0.351271 -0.770468 -0.325466 -0.313907 0.701949 -0.388042 -0.024596 -0.455001 -0.551889 -0.146545 0.288106 -0.141561 0.558591 -1.225198 -0.517556 -0.424590 1.036811 -0.612221 0.070129 -0.699023 -0.913605 -0.905674 0.094695 -0.449587 0.550783 0.441370 -0.014717 0.018787 -0.437300 0.464305 0.886887 -0.536065 -0.113482 0.905674 2.535700
332.000000 0.000000 110.000000 0.460000 24080.627000 27.000000 5.000000 0.180818 0.978992 0.094233 -0.982776 0.174648 0.065877 0.049460 -0.105418 0.993417 0.187525 -0.156364 -0.031162 0.787469 0.324324 0.259041 0.000000 0.000000 0.000000 1.000000 0.233471 0.103736 0.468768 1.000000 0.569893 0.386959 1.000000 0.150021 1.000000 0.233471 0.103736 1.000000 0.123819 0.225003 1.000000 0.043244 0.130051 0.187443 -0.156495 -0.030948 0.787291 0.323994 0.258736 -0.307387 0.631457 -0.324069 0.070619 -0.494417 -0.522952 0.190630 -0.159155 -0.031474 1.251951 0.515216 0.411442 -0.405692 0.941805 -0.536113 0.168033 -0.769382 -0.862415 -0.157972 -0.578644 0.864242 0.443570 0.252463 -0.769751 0.588404 -0.433810 -0.094491 -0.430432 0.326181 -0.009760 0.864242 2.469884
333.000000 0.000000 108.000000 0.370000 21274.116000 28.000000 5.000000 0.180675 0.979056 0.093842 -0.982828 0.174494 0.066010 0.049661 -0.105177 0.993550 0.237762 -0.139683 -0.098079 0.788114 0.383164 0.269877 0.000000 0.000000 0.000000 1.000000 0.232780 0.104171 0.467766 1.000000 0.569421 0.385826 1.000000 0.149413 1.000000 0.232780 0.104171 1.000000 0.124204 0.224129 1.000000 0.042599 0.130277 0.237337 -0.139609 -0.097728 0.787546 0.382645 0.269670 -0.292706 0.700264 -0.407558 0.036527 -0.488259 -0.520813 0.241372 -0.141982 -0.099390 1.252355 0.608482 0.428829 -0.392511 1.044057 -0.651545 0.144546 -0.755738 -0.860429 -0.106357 -0.603180 0.916187 0.419364 0.197088 -0.825456 0.547225 -0.475318 -0.090732 -0.440869 0.406092 0.055955 0.916187 2.549522
334.000000 0.000000 110.000000 0.430000 22309.886000 29.000000 5.000000 0.180391 0.979140 0.093504 -0.982838 0.174157 0.066446 0.050086 -0.104977 0.993503 0.215671 -0.142190 -0.073482 0.746795 0.428544 0.279593 0.000000 0.000000 0.000000 1.000000 0.231226 0.105261 0.466865 1.000000 0.569070 0.384746 1.000000 0.148045 1.000000 0.231226 0.105261 1.000000 0.124080 0.223454 1.000000 0.041633 0.130926 0.215729 -0.142093 -0.073637 0.746603 0.427977 0.279478 -0.294864 0.729237 -0.434373 0.067792 -0.441016 -0.501964 0.219397 -0.144508 -0.074889 1.187249 0.680568 0.444427 -0.394181 1.094046 -0.699865 0.182300 -0.682377 -0.829232 -0.058288 -0.613969 0.911097 0.355415 0.183114 -0.786270 0.545987 -0.423397 -0.124827 -0.487699 0.430855 0.067982 0.911097 2.514494
335.000000 0.000000 113.000000 0.420000 19331.985000 30.000000 5.000000 0.180126 0.979200 0.093389 -0.982877 0.173720 0.067055 0.050244 -0.104892 0.993469 0.205057 -0.155856 -0.049201 0.493961 0.441173 0.336854 0.000000 0.000000 0.000000 1.000000 0.229277 0.106636 0.466673 1.000000 0.568421 0.384286 1.000000 0.147281 1.000000 0.229277 0.106636 1.000000 0.123571 0.223327 1.000000 0.041316 0.131138 0.205252 -0.156023 -0.049228 0.493794 0.440569 0.336632 -0.303644 0.707214 -0.403570 0.051511 -0.201126 -0.406185 0.208741 -0.158676 -0.050065 0.785231 0.700592 0.535312 -0.400249 1.058859 -0.658609 0.147165 -0.301665 -0.677770 0.115443 -0.456588 0.756582 0.184551 -0.003628 -0.644767 0.433452 -0.207686 -0.111815 -0.548896 0.460216 0.023135 0.756582 2.070946
336.000000 0.000000 108.000000 0.500000 19445.109000 31.000000 5.000000 0.180240 0.979162 0.093573 -0.982927 0.173597 0.067004 0.050551 -0.104949 0.993473 0.221664 -0.163317 -0.058347 0.669862 0.345006 0.457077 0.000000 0.000000 0.000000 1.000000 0.229157 0.106464 0.467530 1.000000 0.569865 0.384235 1.000000 0.146728 1.000000 0.229157 0.106464 1.000000 0.123382 0.223723 1.000000 0.040834 0.131757 0.221369 -0.163344 -0.058025 0.669423 0.344675 0.456815 -0.371937 0.697197 -0.325260 0.008194 -0.294059 -0.602901 0.225132 -0.166121 -0.059011 1.064517 0.548103 0.726428 -0.505074 1.038553 -0.533479 0.084749 -0.448100 -0.992507 -0.051097 -0.498621 0.818078 0.370554 0.022023 -0.847151 0.615149 -0.254025 0.029073 -0.564053 0.476598 -0.116528 0.847151 2.450832
337.000000 0.000000 101.000000 0.850000 13366.519000 32.000000 5.000000 0.180496 0.979133 0.093378 -0.982796 0.173499 0.066961 0.050217 -0.105016 0.992764 -0.065720 -0.302972 0.368691 0.549185 0.530609 0.630275 0.000000 0.000000 0.000000 1.000000 0.228918 0.106530 0.466186 1.000000 0.569495 0.385565 1.000000 0.147824 1.000000 0.228918 0.106530 1.000000 0.124175 0.223588 1.000000 0.041482 0.131235 -0.065296 -0.302948 0.368244 0.548731 0.530325 0.630016 -0.560215 0.830565 -0.270350 0.364100 -0.042001 -0.649905 -0.066406 -0.308098 0.374504 0.872591 0.843324 1.001852 -0.722555 1.285080 -0.562525 0.462714 -0.069194 -1.064070 0.086722 -0.601849 0.799190 0.110619 0.127230 -0.585238 0.945239 0.232771 -0.213952 -1.031961 0.474619 -0.343390 1.031961 2.790759
338.000000 0.000000 83.000000 0.630000 8373.448000 33.000000 5.000000 0.180901 0.978894 0.095089 -0.983176 0.174199 0.066910 0.050219 -0.106356 0.994374 0.678004 -0.050187 -0.627817 0.681605 0.236202 0.486562 0.000000 0.000000 0.000000 1.000000 0.231373 0.105526 0.474790 1.000000 0.574198 0.387115 1.000000 0.148247 1.000000 0.231373 0.105526 1.000000 0.121987 0.226943 1.000000 0.043176 0.131910 0.677192 -0.050033 -0.627159 0.681552 0.236324 0.485995 -0.262673 0.737479 -0.474806 -0.502698 -0.364936 -0.615405 0.688704 -0.050883 -0.637821 1.083804 0.375802 0.772830 -0.401693 1.029579 -0.627886 -0.458565 -0.524853 -1.030249 0.012895 -0.293946 0.897817 0.590976 -0.414597 -1.299519 0.216416 -0.668506 0.401702 -0.229311 0.708543 0.077531 1.299519 2.657997
339.000000 0.000000 101.000000 0.440000 17783.693000 34.000000 5.000000 0.078645 -0.069818 0.994455 0.182129 0.980670 0.053918 -0.979721 0.176143 0.088107 -0.594146 0.510666 0.083480 0.474939 0.866251 0.264277 0.000000 0.000000 0.000000 1.000000 0.185112 0.166992 0.362892 1.000000 0.603464 0.280632 1.000000 0.101017 1.000000 0.185112 0.166992 1.000000 0.189902 0.148307 1.000000 0.055269 0.104629 -0.594309 0.510616 0.083693 0.474616 0.866258 0.264333 -0.198570 0.696847 -0.498277 -0.402562 -0.478468 -0.760502 -0.604413 0.519296 0.085116 0.754734 1.377523 0.420342 -0.369485 1.042283 -0.672798 -0.342808 -0.710539 -1.226723 -0.204500 -1.329243 0.411738 -0.713005 0.418014 -0.198224 0.761222 0.144984 -0.213514 -0.556722 0.911229 0.568021 1.329243 2.982447
340.000000 0.000000 105.000000 0.420000 20070.862000 35.000000 5.000000 0.182081 0.981804 0.053925 -0.980798 0.176269 0.088141 0.078392 -0.069685 0.995434 0.448876 0.047661 -0.496537 0.714387 0.232461 0.385929 0.000000 0.000000 0.000000 1.000000 0.184985 0.166889 0.361952 1.000000 0.601344 0.280606 1.000000 0.101347 1.000000 0.184985 0.166889 1.000000 0.189596 0.148107 1.000000 0.054865 0.104316 0.448317 0.047265 -0.495581 0.714100 0.232382 0.385057 -0.182838 0.601492 -0.418654 -0.340365 -0.401640 -0.611728 0.455938 0.048068 -0.504006 1.135562 0.369533 0.612317 -0.323495 0.893771 -0.570276 -0.287532 -0.594457 -0.991310 -0.146218 -0.447941 0.780965 0.479242 -0.178282 -1.105464 0.321673 -0.605509 0.324500 -0.175455 0.626222 0.126267 1.105464 2.469673
341.000000 0.000000 91.000000 1.100000 13054.477000 36.000000 5.000000 0.182248 0.981797 0.053489 -0.980137 0.176531 0.088442 0.078240 -0.069117 0.994721 0.003631 0.177186 -0.180817 0.456385 0.196947 0.290093 0.000000 0.000000 0.000000 1.000000 0.184741 0.167847 0.359514 1.000000 0.601011 0.280565 1.000000 0.101997 1.000000 0.184741 0.167847 1.000000 0.190762 0.147522 1.000000 0.055440 0.103213 0.003449 0.177182 -0.180631 0.455960 0.196766 0.290144 0.001564 0.319134 -0.320698 -0.016196 -0.180790 -0.476991 0.003507 0.180194 -0.183701 0.725067 0.312898 0.461387 -0.094530 0.538089 -0.443559 0.024990 -0.285229 -0.734867 -0.240400 -0.495880 0.351615 0.096136 0.031220 -0.560795 0.407940 -0.184075 0.209180 -0.167541 0.464660 0.087939 0.560795 1.615196
342.000000 0.000000 84.000000 0.880000 9137.250000 37.000000 5.000000 0.182626 0.981755 0.052951 -0.980106 0.176445 0.088747 0.078414 -0.068609 0.995146 0.131787 0.323353 -0.455140 0.321614 0.171692 0.534713 0.000000 0.000000 0.000000 1.000000 0.183900 0.168632 0.359017 1.000000 0.602546 0.279076 1.000000 0.102444 1.000000 0.183900 0.168632 1.000000 0.192404 0.146587 1.000000 0.056424 0.102224 0.131871 0.322656 -0.454527 0.321447 0.171552 0.534233 0.076881 0.329936 -0.406816 -0.267822 0.038205 -0.607360 0.134113 0.328141 -0.462254 0.511165 0.272802 0.849537 -0.056348 0.560743 -0.504395 -0.265989 0.077168 -0.929720 -0.176523 -0.399265 0.240841 0.018100 -0.381605 -0.798970 0.312039 -0.105326 0.558129 -0.135515 0.780870 0.087226 0.798970 1.918667
343.000000 0.000000 91.000000 0.930000 11184.304000 38.000000 5.000000 0.182191 0.981875 0.052234 -0.980613 0.176728 0.088414 0.078726 -0.068317 0.995094 0.288370 -0.037408 -0.250961 0.646309 0.379070 0.258886 0.000000 0.000000 0.000000 1.000000 0.184709 0.168234 0.356488 1.000000 0.600325 0.277809 1.000000 0.101279 1.000000 0.184709 0.168234 1.000000 0.192854 0.144764 1.000000 0.057279 0.101554 0.287772 -0.037260 -0.250512 0.645607 0.378849 0.258242 -0.208603 0.664464 -0.455861 -0.098232 -0.375332 -0.451177 0.292664 -0.037893 -0.254771 1.026644 0.602445 0.410657 -0.315760 1.004922 -0.689162 -0.011886 -0.569107 -0.738441 -0.038229 -0.530123 0.800023 0.308128 0.027986 -0.810265 0.363286 -0.474965 0.010243 -0.325057 0.502137 0.166837 0.810265 2.232650
344.000000 0.000000 76.000000 1.300000 7476.410000 39.000000 5.000000 0.079409 -0.066832 0.994599 0.981490 -0.176584 -0.089356 0.182639 0.983880 0.049562 1.052412 -0.191161 -0.861251 -0.543455 0.975240 -0.433429 0.000000 0.000000 0.000000 1.000000 0.181025 0.171335 0.346376 1.000000 0.598401 0.275961 1.000000 0.100739 1.000000 0.181025 0.171335 1.000000 0.197942 0.139680 1.000000 0.060400 0.098422 1.052607 -0.191539 -0.861068 -0.543350 0.975321 -0.433593 -0.439195 0.995372 -0.556177 1.148387 0.216892 -0.514981 1.070501 -0.194795 -0.875706 -0.864035 1.550955 -0.689499 -0.580306 1.680457 -1.100151 1.309589 0.258166 -0.797265 1.502470 0.236121 0.796989 -0.469361 -0.865790 -0.160308 -1.428763 -0.723282 -0.636681 -0.073707 0.629669 1.192643 1.502470 3.715972
345.000000 0.000000 92.000000 0.950000 7229.029000 40.000000 5.000000 -0.188808 -0.979164 -0.074764 0.047582 -0.085274 0.994217 -0.980145 0.182555 0.060891 -0.713751 0.286415 0.427336 0.835701 -0.879725 -0.092319 0.000000 0.000000 0.000000 1.000000 0.250894 0.100391 0.401035 1.000000 0.565597 0.346427 1.000000 0.172144 1.000000 0.250894 0.100391 1.000000 0.177188 0.185116 1.000000 0.018774 0.118116 -0.713758 0.286127 0.427631 0.835533 -0.879901 -0.092515 -0.009521 0.161826 -0.152306 0.433384 -0.061800 -1.285152 -0.725892 0.290991 0.434901 1.328664 -1.399219 -0.147117 -0.237186 0.456213 -0.219027 0.428357 -0.165254 -1.943757 -1.528794 -0.386337 -0.443944 0.698513 1.076377 -0.008473 0.956256 -0.128593 0.452417 0.572538 -0.690040 -0.569919 1.528794 3.526402
346.000000 0.000000 97.000000 1.040000 9166.983000 41.000000 5.000000 0.188971 0.979159 0.074413 -0.980336 0.182857 0.060949 0.046939 -0.085323 0.993870 -0.755219 0.139384 0.615835 0.522960 0.360949 0.838350 0.000000 0.000000 0.000000 1.000000 0.251350 0.100684 0.399546 1.000000 0.563795 0.347355 1.000000 0.173819 1.000000 0.251350 0.100684 1.000000 0.178104 0.184522 1.000000 0.019962 0.116961 -0.755141 0.139717 0.615424 0.523158 0.360775 0.838677 -0.240896 0.406090 -0.165193 0.671655 0.198071 -0.987936 -0.767978 0.142092 0.625886 0.831926 0.573705 1.333664 -0.445756 0.802903 -0.357148 0.705801 0.249533 -1.501625 -0.476953 -0.945381 0.202312 -0.266116 0.364209 -0.315055 1.453141 0.773877 0.112744 -0.976188 0.581172 -0.507760 1.453141 3.146786
347.000000 0.000000 96.000000 0.920000 9992.400000 42.000000 5.000000 0.189164 0.979102 0.074670 -0.980290 0.183135 0.060300 0.046557 -0.085233 0.993601 -0.864528 0.064369 0.800160 0.669879 0.228189 0.814462 0.000000 0.000000 0.000000 1.000000 0.253058 0.099198 0.399202 1.000000 0.563404 0.348173 1.000000 0.174984 1.000000 0.253058 0.099198 1.000000 0.178256 0.184944 1.000000 0.020488 0.116247 -0.864587 0.064352 0.800235 0.670031 0.228198 0.814383 -0.323835 0.296633 0.027201 0.785422 0.063313 -1.068902 -0.879285 0.065446 0.813839 1.065483 0.362881 1.295031 -0.534028 0.635258 -0.101229 0.807797 0.027479 -1.631300 -0.672521 -0.968812 0.197443 -0.098848 0.597502 -0.272461 1.654891 0.784927 0.075019 -0.982370 0.371310 -0.686079 1.654891 3.315383
348.000000 0.000000 103.000000 0.870000 12654.174000 43.000000 5.000000 0.189281 0.979074 0.074744 -0.979871 0.183424 0.060156 0.046375 -0.085150 0.993134 -1.148201 0.148901 0.999299 0.661803 0.181493 0.696886 0.000000 0.000000 0.000000 1.000000 0.253919 0.098893 0.398469 1.000000 0.563351 0.348972 1.000000 0.175626 1.000000 0.253919 0.098893 1.000000 0.178496 0.185207 1.000000 0.020629 0.115931 -1.148266 0.148883 0.999383 0.662242 0.181413 0.696539 -0.209168 0.106266 0.102902 1.009802 0.043118 -1.035369 -1.167786 0.151414 1.016372 1.053098 0.288483 1.107637 -0.392751 0.396906 -0.004155 1.037404 -0.029862 -1.547878 -0.850714 -1.086259 0.009137 -0.226409 0.869413 0.009563 1.773795 0.913945 -0.018700 -0.923081 0.216846 -0.687536 1.773795 3.299513
349.000000 0.000000 111.000000 1.150000 15695.443000 44.000000 5.000000 0.188821 0.979299 0.072937 -0.977447 0.184032 0.059086 0.046212 -0.082689 0.988835 -3.441031 0.200135 3.240896 0.997196 0.065307 0.015755 0.000000 0.000000 0.000000 1.000000 0.255756 0.097739 0.384139 1.000000 0.556949 0.349349 1.000000 0.175719 1.000000 0.255756 0.097739 1.000000 0.181551 0.181704 1.000000 0.017609 0.114640 -3.441065 0.199731 3.241333 0.997214 0.065295 0.015546 -0.019082 -0.832227 0.851309 3.218710 -0.275046 -1.023660 -3.499563 0.203127 3.296436 1.585770 0.103832 0.024721 -0.074217 -0.690392 0.764609 3.344686 -0.729527 -1.360472 -2.116615 -2.201394 -0.821840 -0.906618 3.411750 2.116975 3.431935 2.137160 -1.295135 -1.315320 -1.210357 -1.230541 3.431935 6.504630
350.000000 0.000000 111.000000 0.920000 16711.496000 45.000000 5.000000 0.189105 0.979212 0.073374 -0.977580 0.184379 0.058670 0.046439 -0.082536 0.989179 -3.269624 0.201286 3.068338 1.310855 -0.274483 0.006509 0.000000 0.000000 0.000000 1.000000 0.257368 0.096609 0.385415 1.000000 0.558895 0.348944 1.000000 0.175662 1.000000 0.257368 0.096609 1.000000 0.181397 0.182495 1.000000 0.016973 0.114996 -3.269748 0.201538 3.068210 1.311249 -0.274239 0.006479 -0.043747 -1.027805 1.071553 2.985729 -0.599403 -1.220816 -3.325334 0.204964 3.120370 2.085148 -0.436095 0.010303 -0.117551 -1.031736 1.149288 3.065626 -1.231637 -1.685775 -2.470531 -2.114461 -0.768016 -0.411945 3.478500 1.775984 3.486912 1.784396 -1.007968 -1.016380 -1.364039 -1.372451 3.486912 6.698450
351.000000 0.000000 110.000000 0.800000 19369.447000 46.000000 5.000000 0.189042 0.979207 0.073592 -0.978333 0.184524 0.058559 0.046027 -0.083108 0.989930 -2.753067 -0.046180 2.799246 1.214400 -0.087360 -0.025900 0.000000 0.000000 0.000000 1.000000 0.258046 0.096199 0.387273 1.000000 0.557950 0.349333 1.000000 0.176349 1.000000 0.258046 0.096199 1.000000 0.180827 0.182719 1.000000 0.018496 0.114423 -2.752819 -0.046339 2.799157 1.214539 -0.087035 -0.025666 -0.239284 -0.657685 0.896969 2.679526 -0.600836 -1.001507 -2.799617 -0.047126 2.846743 1.931361 -0.138403 -0.040815 -0.301976 -0.573904 0.875881 2.785372 -1.185204 -1.402184 -1.968677 -1.855671 -0.391727 -0.278722 3.110254 1.533305 3.076929 1.499979 -1.141577 -1.108252 -1.254582 -1.221257 3.110254 5.930342
352.000000 0.000000 111.000000 0.620000 21144.378000 47.000000 5.000000 0.189393 0.979055 0.074713 -0.979720 0.184331 0.058954 0.045796 -0.084790 0.992530 -1.387488 -0.035206 1.422694 0.998752 0.093667 0.339404 0.000000 0.000000 0.000000 1.000000 0.257750 0.096338 0.395992 1.000000 0.561356 0.349760 1.000000 0.177159 1.000000 0.257750 0.096338 1.000000 0.179237 0.184837 1.000000 0.021123 0.114710 -1.387622 -0.035322 1.422943 0.998464 0.094069 0.339749 -0.294551 -0.024166 0.318716 1.384126 -0.404840 -0.960625 -1.411211 -0.035922 1.447133 1.587758 0.149589 0.540268 -0.422299 0.199724 0.222575 1.454631 -0.758823 -1.432863 -1.148589 -1.270728 0.147809 0.025671 1.594550 0.298151 2.035677 0.739278 -0.445961 -0.887088 -0.323822 -0.764949 2.035677 3.825732
353.000000 0.000000 110.000000 0.570000 21834.943000 48.000000 5.000000 0.189536 0.979027 0.074718 -0.980045 0.184871 0.059301 0.045683 -0.085154 0.993427 -0.932777 -0.021855 0.954632 0.805237 0.242530 0.165520 0.000000 0.000000 0.000000 1.000000 0.258525 0.096973 0.397790 1.000000 0.562107 0.349439 1.000000 0.177631 1.000000 0.258525 0.096973 1.000000 0.179423 0.184855 1.000000 0.021754 0.114647 -0.933114 -0.021530 0.954644 0.805105 0.242485 0.165317 -0.181586 0.156935 0.024651 1.011915 -0.391330 -0.647582 -0.948977 -0.021896 0.970873 1.280277 0.385599 0.262888 -0.258878 0.410307 -0.151429 1.107980 -0.699752 -0.965557 -0.743730 -1.058571 0.301612 -0.013229 1.199123 0.153781 1.413770 0.368428 -0.455393 -0.670040 -0.140553 -0.355200 1.413770 2.887242
354.000000 0.000000 112.000000 0.420000 26266.368000 49.000000 5.000000 0.189786 0.978969 0.074838 -0.980077 0.184791 0.059547 0.045683 -0.085385 0.993566 -0.869603 0.010428 0.859175 0.696775 0.282481 0.322984 0.000000 0.000000 0.000000 1.000000 0.258055 0.097443 0.398935 1.000000 0.563420 0.349832 1.000000 0.178007 1.000000 0.258055 0.097443 1.000000 0.179600 0.185273 1.000000 0.022022 0.114793 -0.869304 0.010090 0.859214 0.696694 0.282814 0.322887 -0.197083 0.226638 -0.029555 0.913818 -0.221108 -0.697962 -0.884082 0.010261 0.873821 1.107883 0.449731 0.513454 -0.302164 0.515502 -0.213338 0.994662 -0.424312 -1.046547 -0.633803 -1.001007 0.270780 -0.096425 0.960335 0.055753 1.379569 0.474986 -0.326532 -0.745766 0.040672 -0.378562 1.379569 2.719890
355.000000 0.000000 109.000000 0.370000 25494.188000 50.000000 5.000000 0.190027 0.978913 0.074956 -0.980122 0.185066 0.059442 0.045699 -0.085479 0.993847 -0.743206 0.047437 0.695769 0.769399 0.249811 0.316435 0.000000 0.000000 0.000000 1.000000 0.258924 0.097128 0.399809 1.000000 0.564613 0.349830 1.000000 0.178363 1.000000 0.258924 0.097128 1.000000 0.179902 0.185514 1.000000 0.022066 0.114890 -0.743160 0.047339 0.695821 0.769617 0.250036 0.316180 -0.161917 0.237766 -0.075849 0.777249 -0.304703 -0.730023 -0.755794 0.048144 0.707650 1.223844 0.397607 0.502790 -0.269134 0.517303 -0.248169 0.854764 -0.547494 -1.102114 -0.665517 -0.990161 0.333748 0.009104 0.891818 -0.107447 1.302344 0.303079 -0.226301 -0.636827 0.098343 -0.312183 1.302344 2.708785
356.000000 0.000000 115.000000 0.310000 26628.361000 51.000000 5.000000 0.190270 0.978844 0.075250 -0.980551 0.185195 0.059635 0.045833 -0.085958 0.994548 -0.342125 -0.008350 0.350475 0.776743 0.290523 0.402937 0.000000 0.000000 0.000000 1.000000 0.259127 0.097346 0.402388 1.000000 0.566562 0.349889 1.000000 0.178352 1.000000 0.259127 0.097346 1.000000 0.179689 0.186144 1.000000 0.022430 0.115349 -0.342481 -0.008088 0.350569 0.776693 0.290573 0.403164 -0.234042 0.441187 -0.207145 0.433333 -0.318084 -0.731597 -0.348303 -0.008226 0.356529 1.235097 0.462069 0.641112 -0.361086 0.760785 -0.399700 0.505191 -0.534273 -1.139785 -0.454423 -0.831701 0.554029 0.176751 0.530240 -0.478213 1.053705 0.045253 -0.075817 -0.599282 0.301461 -0.222005 1.053705 2.612036
357.000000 0.000000 108.000000 0.300000 19628.019000 52.000000 5.000000 0.190493 0.978791 0.075367 -0.980761 0.185375 0.059895 0.045979 -0.086505 0.994757 -0.169506 -0.090669 0.260175 0.774980 0.470582 0.436017 0.000000 0.000000 0.000000 1.000000 0.259252 0.097828 0.403958 1.000000 0.568195 0.350535 1.000000 0.178269 1.000000 0.259252 0.097828 1.000000 0.179738 0.186523 1.000000 0.022830 0.115882 -0.169459 -0.090996 0.260455 0.775381 0.470975 0.436107 -0.317079 0.693712 -0.376634 0.367084 -0.304043 -0.690384 -0.172340 -0.092543 0.264883 1.233010 0.748944 0.693497 -0.450868 1.117774 -0.666906 0.468744 -0.495938 -1.096347 -0.230196 -0.841706 0.776553 0.165042 0.398751 -0.607998 0.964988 -0.041760 -0.168555 -0.734793 0.442955 -0.123282 0.964988 2.801633
358.000000 0.000000 103.000000 1.110000 21542.079000 53.000000 5.000000 0.185932 0.979287 0.080164 -0.981938 0.181937 0.050447 0.035916 -0.089307 0.995197 -0.078228 -0.001817 0.080046 0.655710 0.500516 0.180801 0.000000 0.000000 0.000000 1.000000 0.267773 0.075744 0.406682 1.000000 0.529775 0.363911 1.000000 0.193640 1.000000 0.267773 0.075744 1.000000 0.166936 0.191481 1.000000 0.045449 0.098090 -0.078097 -0.001896 0.079993 0.655673 0.500535 0.181246 -0.110067 0.614198 -0.504131 0.274939 -0.354939 -0.442967 -0.079424 -0.001929 0.081353 1.042651 0.795951 0.288217 -0.172497 0.990578 -0.818081 0.395338 -0.570405 -0.698864 -0.132352 -0.782244 0.718969 0.069077 0.373633 -0.477688 0.608961 -0.242360 -0.241281 -0.476609 0.408610 0.173282 0.782244 2.330361
359.000000 0.000000 110.000000 0.320000 26010.206000 54.000000 5.000000 0.186302 0.979190 0.080494 -0.982104 0.181853 0.050525 0.035925 -0.089462 0.995362 0.031810 -0.043547 0.011737 0.630009 0.393920 0.417050 0.000000 0.000000 0.000000 1.000000 0.267623 0.075770 0.408247 1.000000 0.531542 0.364350 1.000000 0.194177 1.000000 0.267623 0.075770 1.000000 0.166975 0.192300 1.000000 0.045608 0.098223 0.031765 -0.043479 0.011714 0.630105 0.393873 0.416604 -0.231811 0.623594 -0.391783 0.117958 -0.237448 -0.599082 0.032305 -0.044218 0.011913 1.001993 0.626337 0.662483 -0.345228 0.978465 -0.633237 0.192387 -0.373984 -0.959731 -0.122120 -0.633522 0.696003 0.184601 0.130279 -0.687845 0.671194 -0.146929 -0.008159 -0.549074 0.503243 -0.037672 0.696003 2.347387
360.000000 0.000000 118.000000 0.320000 29750.707000 55.000000 5.000000 0.186220 0.979205 0.080500 -0.982147 0.181823 0.050453 0.035906 -0.089406 0.995357 0.039693 -0.069401 0.029708 0.651427 0.367189 0.396035 0.000000 0.000000 0.000000 1.000000 0.267658 0.075616 0.408071 1.000000 0.531127 0.364238 1.000000 0.194082 1.000000 0.267658 0.075616 1.000000 0.166821 0.192255 1.000000 0.045588 0.098146 0.039255 -0.069097 0.029841 0.651063 0.367584 0.396371 -0.250639 0.607953 -0.357314 0.119815 -0.270995 -0.593186 0.039923 -0.070271 0.030349 1.035320 0.584532 0.630309 -0.361169 0.947874 -0.586705 0.192232 -0.426071 -0.953690 -0.139047 -0.616315 0.706288 0.229020 0.161437 -0.683899 0.676082 -0.169254 -0.022389 -0.537035 0.454879 -0.059767 0.706288 2.333183
361.000000 0.000000 119.000000 0.490000 31003.774000 56.000000 5.000000 0.186352 0.979177 0.080535 -0.982103 0.181935 0.050493 0.035965 -0.089450 0.995418 0.054583 -0.032778 -0.021805 0.666642 0.359740 0.402414 0.000000 0.000000 0.000000 1.000000 0.267877 0.075674 0.408427 1.000000 0.531873 0.364285 1.000000 0.194169 1.000000 0.267877 0.075674 1.000000 0.167009 0.192380 1.000000 0.045509 0.098297 0.054563 -0.032938 -0.021625 0.666730 0.360104 0.402328 -0.218834 0.600121 -0.381287 0.086391 -0.281797 -0.612174 0.055490 -0.033498 -0.021992 1.060234 0.572638 0.639782 -0.330846 0.938783 -0.607937 0.157167 -0.443025 -0.981081 -0.162731 -0.630288 0.702946 0.235390 0.140017 -0.725661 0.662397 -0.203281 0.022714 -0.499665 0.490271 -0.032109 0.725661 2.364534
362.000000 0.000000 114.000000 0.680000 24802.293000 57.000000 5.000000 0.186383 0.979171 0.080528 -0.982053 0.182127 0.050577 0.035821 -0.089457 0.995446 0.059180 -0.018800 -0.040380 0.562049 0.378055 0.316261 0.000000 0.000000 0.000000 1.000000 0.268180 0.075838 0.408400 1.000000 0.531665 0.364451 1.000000 0.194576 1.000000 0.268180 0.075838 1.000000 0.167098 0.192412 1.000000 0.045757 0.098041 0.059497 -0.018919 -0.040578 0.561836 0.378280 0.316197 -0.166096 0.569740 -0.403645 0.084597 -0.241341 -0.488412 0.060509 -0.019241 -0.041268 0.893432 0.601541 0.502817 -0.254816 0.891958 -0.637142 0.160796 -0.378679 -0.783119 -0.086606 -0.577762 0.642878 0.151722 0.117918 -0.611566 0.528466 -0.201018 -0.031311 -0.441860 0.459845 0.049296 0.642878 2.060896
363.000000 0.000000 110.000000 0.570000 20102.165000 58.000000 5.000000 0.186545 0.979141 0.080521 -0.982123 0.182349 0.050744 0.035996 -0.089418 0.995651 0.167413 -0.028189 -0.139224 0.566585 0.333706 0.289740 0.000000 0.000000 0.000000 1.000000 0.268439 0.076165 0.408853 1.000000 0.532739 0.364073 1.000000 0.194433 1.000000 0.268439 0.076165 1.000000 0.167339 0.192471 1.000000 0.045362 0.098357 0.167375 -0.028281 -0.139094 0.566776 0.333695 0.289663 -0.163044 0.559763 -0.396719 -0.020659 -0.280564 -0.461278 0.170220 -0.028762 -0.141458 0.901287 0.530642 0.460622 -0.246860 0.854888 -0.608028 0.047938 -0.432448 -0.748955 -0.070081 -0.503349 0.665817 0.232549 0.052659 -0.683239 0.428755 -0.307143 0.017422 -0.358674 0.450690 0.074594 0.683239 1.998233
364.000000 0.000000 99.000000 0.960000 12346.190000 59.000000 5.000000 0.186496 0.979172 0.080260 -0.981943 0.182613 0.050660 0.036081 -0.089099 0.995449 0.047605 -0.015140 -0.032465 0.635219 0.310052 0.126871 0.000000 0.000000 0.000000 1.000000 0.269036 0.076087 0.407457 1.000000 0.532308 0.363572 1.000000 0.194219 1.000000 0.269036 0.076087 1.000000 0.167765 0.191913 1.000000 0.044770 0.098369 0.047328 -0.014967 -0.032362 0.635197 0.309885 0.126845 -0.100060 0.464529 -0.364469 0.108423 -0.410318 -0.397384 0.048133 -0.015221 -0.032912 1.010090 0.492780 0.201708 -0.151762 0.727558 -0.575796 0.193337 -0.648419 -0.637050 -0.185327 -0.587680 0.639408 0.237055 0.296934 -0.527801 0.461628 -0.363107 -0.111607 -0.276301 0.290746 0.126052 0.639408 1.979102
365.000000 0.000000 74.000000 1.990000 7383.504000 60.000000 5.000000 0.024549 -0.043572 0.998749 0.985471 -0.176741 -0.028899 0.179341 0.986564 0.036453 1.668416 0.053105 -1.721521 -0.652732 1.082761 -1.511886 0.000000 0.000000 0.000000 1.000000 0.272152 0.047239 0.256243 1.000000 0.421338 0.264286 1.000000 0.214696 1.000000 0.272152 0.047239 1.000000 0.240368 0.088255 1.000000 0.009620 0.057476 1.668066 0.053441 -1.721507 -0.652298 1.082888 -1.511768 -0.288652 1.055110 -0.766457 1.871763 -0.444591 -1.471343 1.696423 0.054350 -1.750773 -1.037284 1.722009 -2.404013 -0.457592 1.915480 -1.457889 2.051732 -0.832940 -2.210931 1.796850 0.390836 0.949912 -0.456103 -0.849347 -0.002408 -2.812215 -1.965277 -0.947503 1.015365 0.458511 2.421380 2.812215 6.195213
366.000000 0.000000 117.000000 0.420000 28928.816000 0.000000 6.000000 -0.691008 0.257609 0.675386 -0.194960 0.833765 -0.518745 -0.698007 -0.489309 -0.525769 0.888944 -0.245205 -0.643739 -0.425810 -0.589251 0.423714 0.000000 0.000000 0.000000 0.006474 1.000000 0.480447 0.149281 0.872985 1.000000 1.000000 0.642817 0.261694 0.006474 1.000000 0.480447 0.766448 0.725163 1.000000 0.168831 0.012589 1.000000 0.888524 -0.244814 -0.643709 -0.425592 -0.589052 0.423953 -0.466787 0.885965 -0.419178 -0.068694 -0.230732 -0.832172 0.903629 -0.248976 -0.654653 -0.676777 -0.936711 0.674170 -0.800501 1.405057 -0.604556 -0.239180 -0.195411 -0.926219 0.364431 1.129253 -0.188155 0.576667 -1.187687 -0.635101 -0.637230 -0.084644 0.823256 0.272799 0.058434 -0.492023 1.187687 2.707496
367.000000 0.000000 117.000000 0.340000 30092.621000 1.000000 6.000000 -0.195265 0.833222 -0.517314 -0.697516 -0.488418 -0.524953 -0.689590 0.257041 0.675137 -0.322038 -0.649045 0.971083 -0.521528 0.217302 -0.402114 0.000000 0.000000 0.000000 0.007770 1.000000 0.481770 0.148073 0.870203 1.000000 1.000000 0.646718 0.262454 0.007770 1.000000 0.481770 0.769613 0.727699 1.000000 0.170226 0.013119 1.000000 -0.322696 -0.650044 0.972740 -0.521886 0.217389 -0.402650 -0.416772 0.757746 -0.340974 0.067284 -0.382551 -0.797034 -0.328182 -0.661095 0.989277 -0.829903 0.345691 -0.640294 -0.740760 1.188760 -0.447999 -0.046483 -0.416073 -0.850506 0.615846 0.333590 -0.061767 -0.344023 0.460442 1.138055 -0.062355 0.615258 -1.076288 -0.553491 -0.794032 -0.271235 1.138055 2.437166
368.000000 0.000000 119.000000 0.350000 32456.031000 2.000000 6.000000 -0.195123 0.833175 -0.517443 -0.697519 -0.488285 -0.525072 -0.689695 0.257109 0.674910 -0.343074 -0.670502 1.013576 -0.578880 0.218280 -0.484420 0.000000 0.000000 0.000000 0.007449 1.000000 0.480784 0.148128 0.870388 1.000000 1.000000 0.645914 0.262546 0.007449 1.000000 0.480784 0.769138 0.726855 1.000000 0.169995 0.013230 1.000000 -0.343873 -0.670996 1.014869 -0.579661 0.218808 -0.484923 -0.484825 0.850269 -0.365445 0.045839 -0.441338 -0.821944 -0.349719 -0.682403 1.032122 -0.921776 0.347948 -0.771125 -0.854382 1.333550 -0.479168 -0.088531 -0.500771 -0.874315 0.654181 0.370082 -0.098447 -0.382545 0.502631 1.255258 -0.126990 0.625637 -1.156811 -0.527191 -0.872713 -0.243092 1.255258 2.678805
369.000000 0.000000 117.000000 0.350000 33527.979000 3.000000 6.000000 -0.195102 0.833248 -0.517332 -0.697560 -0.488232 -0.525103 -0.689644 0.257089 0.674888 -0.355611 -0.701438 1.057049 -0.582272 0.186496 -0.463962 0.000000 0.000000 0.000000 0.007462 1.000000 0.480650 0.147946 0.870135 1.000000 1.000000 0.646035 0.262876 0.007462 1.000000 0.480650 0.769577 0.726778 1.000000 0.170069 0.013361 1.000000 -0.355587 -0.702321 1.057908 -0.583083 0.186738 -0.464694 -0.486403 0.832333 -0.345929 0.086168 -0.460247 -0.846441 -0.361632 -0.714260 1.075892 -0.927219 0.296950 -0.738957 -0.859674 1.304905 -0.445231 -0.030673 -0.522496 -0.894008 0.643725 0.401266 -0.113346 -0.355805 0.510009 1.267080 -0.093347 0.663725 -1.153734 -0.550378 -0.911275 -0.307919 1.267080 2.679487
370.000000 0.000000 117.000000 0.360000 32831.358000 4.000000 6.000000 -0.195022 0.833308 -0.517266 -0.697531 -0.488136 -0.525193 -0.689678 0.256969 0.674908 -0.359930 -0.686310 1.046240 -0.590371 0.236371 -0.464978 0.000000 0.000000 0.000000 0.007395 1.000000 0.480574 0.148001 0.869180 1.000000 1.000000 0.645741 0.263311 0.007395 1.000000 0.480574 0.770027 0.726750 1.000000 0.169944 0.013768 1.000000 -0.360292 -0.686989 1.047281 -0.590972 0.236340 -0.465344 -0.478560 0.861940 -0.383381 0.064469 -0.428182 -0.850861 -0.366417 -0.698668 1.065085 -0.939764 0.375829 -0.739990 -0.848496 1.350303 -0.501806 -0.065154 -0.472968 -0.908246 0.672729 0.365867 -0.094585 -0.401447 0.502851 1.270165 -0.101348 0.665966 -1.175580 -0.571381 -0.868717 -0.264518 1.270165 2.711305
371.000000 0.000000 113.000000 0.630000 20872.685000 5.000000 6.000000 -0.194844 0.833328 -0.517301 -0.697458 -0.488180 -0.525196 -0.689754 0.257034 0.674768 -0.377776 -0.676062 1.053839 -0.605994 0.236200 -0.382520 0.000000 0.000000 0.000000 0.007232 1.000000 0.480270 0.148119 0.869903 1.000000 1.000000 0.644874 0.263657 0.007232 1.000000 0.480270 0.769743 0.726010 1.000000 0.169649 0.013791 1.000000 -0.378213 -0.676823 1.055036 -0.606621 0.236191 -0.382986 -0.463134 0.846403 -0.383268 0.128963 -0.374954 -0.855253 -0.384642 -0.688329 1.072972 -0.964649 0.375591 -0.609025 -0.828649 1.321877 -0.493229 0.033190 -0.385794 -0.916761 0.671130 0.364462 -0.116502 -0.423171 0.449885 1.237518 -0.047381 0.740251 -1.121016 -0.623749 -0.814347 -0.317080 1.237518 2.643314
372.000000 0.000000 111.000000 1.080000 12455.949000 6.000000 6.000000 -0.194093 0.833338 -0.517567 -0.696827 -0.487698 -0.527414 -0.690772 0.256786 0.673355 -0.317986 -1.108991 1.426977 -0.489314 0.222703 -0.899762 0.000000 0.000000 0.000000 0.002984 1.000000 0.473633 0.150486 0.864502 1.000000 1.000000 0.640130 0.265880 0.002984 1.000000 0.473633 0.771896 0.726844 1.000000 0.167383 0.015802 1.000000 -0.318370 -1.110086 1.428455 -0.490177 0.223052 -0.900817 -0.519320 0.895779 -0.376459 -0.193414 -0.856734 -1.187537 -0.323782 -1.128957 1.452739 -0.779479 0.354697 -1.432479 -0.903201 1.439237 -0.536036 -0.500071 -1.090257 -1.226507 0.791737 0.502128 0.155295 -0.134314 0.991848 1.628290 -0.177766 0.458676 -1.783584 -0.613970 -1.493976 -0.324362 1.783584 3.686587
373.000000 0.000000 117.000000 0.570000 19681.290000 7.000000 6.000000 -0.193865 0.833346 -0.517640 -0.695161 -0.488335 -0.527977 -0.692455 0.256261 0.672727 -0.299376 -0.538533 0.837909 -0.521619 0.217705 -0.557890 0.000000 0.000000 0.000000 0.000702 1.000000 0.473705 0.156386 0.863356 1.000000 1.000000 0.636122 0.267899 0.000702 1.000000 0.473705 0.772216 0.733691 1.000000 0.163944 0.017526 1.000000 -0.299693 -0.539400 0.839092 -0.522119 0.217846 -0.558650 -0.462143 0.827365 -0.365222 -0.063691 -0.443229 -0.676994 -0.304787 -0.548569 0.853357 -0.830273 0.346419 -0.888366 -0.810591 1.298875 -0.488284 -0.236586 -0.537310 -0.723616 0.579906 0.297056 -0.098009 -0.380859 0.496527 1.174442 -0.228821 0.449094 -1.076433 -0.351085 -0.793583 -0.068235 1.174442 2.545333
374.000000 0.000000 114.000000 0.530000 18007.995000 8.000000 6.000000 -0.193841 0.833312 -0.517703 -0.695001 -0.488389 -0.527946 -0.692439 0.256375 0.672519 -0.373772 -0.512186 0.885958 -0.491185 0.151665 -0.528630 0.000000 0.000000 0.000000 0.000510 1.000000 0.473291 0.156646 0.864468 1.000000 1.000000 0.635948 0.267829 0.000510 1.000000 0.473291 0.771692 0.733747 1.000000 0.163805 0.017333 1.000000 -0.373950 -0.512828 0.886778 -0.491846 0.151737 -0.529253 -0.409719 0.787140 -0.377420 0.010562 -0.490570 -0.658731 -0.380307 -0.521546 0.901853 -0.782134 0.241293 -0.841619 -0.746187 1.220299 -0.474112 -0.137628 -0.599313 -0.692675 0.475472 0.278458 -0.163137 -0.360152 0.547724 1.186334 -0.139454 0.499155 -1.023197 -0.336018 -0.826182 -0.139003 1.186334 2.445365
375.000000 0.000000 108.000000 0.800000 11781.802000 9.000000 6.000000 -0.193809 0.833278 -0.517770 -0.694507 -0.488394 -0.527818 -0.692315 0.256827 0.671442 -0.741500 -0.472176 1.213676 -0.494312 -0.266544 -0.460528 0.000000 0.000000 0.000000 0.000311 1.000000 0.470903 0.157354 0.869020 1.000000 1.000000 0.635867 0.268044 0.000311 1.000000 0.470903 0.769981 0.733969 1.000000 0.163491 0.016796 1.000000 -0.742536 -0.472799 1.215335 -0.494903 -0.266909 -0.461014 -0.341801 0.714753 -0.372952 0.434729 -0.830239 -0.626889 -0.755159 -0.480837 1.235995 -0.786995 -0.424439 -0.733105 -0.732384 1.038544 -0.306160 0.434029 -1.057556 -0.583416 0.036021 0.382574 -0.606557 -0.260004 0.790885 1.433463 0.192307 0.834885 -0.826906 -0.228328 -1.173459 -0.574881 1.433463 2.739450
376.000000 0.000000 89.000000 4.060000 6818.602000 10.000000 6.000000 -0.193985 0.833174 -0.517872 -0.688327 -0.494172 -0.524399 -0.688633 0.260966 0.661444 -4.543963 -1.083594 5.627557 0.929812 -4.311894 3.329231 0.000000 0.000000 0.000000 0.009388 1.000000 0.468982 0.163261 0.937066 1.000000 1.000000 0.640487 0.268622 0.009388 1.000000 0.468982 0.751264 0.737823 1.000000 0.162379 0.005017 1.000000 -4.549065 -1.084650 5.633715 0.930916 -4.316637 3.332796 2.666299 -2.570834 -0.095465 6.400407 -2.704744 -1.505823 -4.626399 -1.103089 5.729488 1.480343 -6.864316 5.299812 3.071577 -4.828996 1.757419 8.796612 -3.025729 -0.815715 -4.845078 0.759613 -3.636383 1.968308 2.668481 1.459786 6.995760 5.787065 2.176597 -2.150682 -3.428094 -7.755372 7.755372 17.758544
377.000000 0.000000 122.000000 0.430000 23729.406000 11.000000 6.000000 -0.204372 0.969736 -0.133584 -0.243389 0.080522 0.966910 0.948884 0.229701 0.220568 0.405317 0.086342 -0.491659 -0.408069 0.319247 0.667727 0.000000 0.000000 0.000000 1.000000 0.080850 0.502860 0.046029 0.878419 1.000000 0.039442 1.000000 0.037175 1.000000 0.080850 0.502860 1.000000 0.283291 0.190906 1.000000 0.165068 0.306567 0.405095 0.086265 -0.491361 -0.407869 0.319056 0.667677 -0.287787 0.722644 -0.434856 -0.347752 -0.425024 -0.470947 0.411982 0.087732 -0.499714 -0.648593 0.507362 1.061740 -0.217121 1.053915 -0.836794 -0.463592 -0.696220 -0.624707 0.604291 0.190031 0.074717 -0.339542 -1.070439 -0.540865 -0.203531 0.326042 0.466147 -0.400760 0.880407 0.013500 1.070439 2.461068
378.000000 0.000000 121.000000 0.390000 25355.847000 12.000000 6.000000 -0.204670 0.969691 -0.133454 -0.949172 -0.230360 -0.219982 -0.243562 0.080412 0.967132 0.585889 -0.605369 0.019480 0.046628 0.620823 -0.122500 0.000000 0.000000 0.000000 1.000000 0.078204 0.504252 0.046054 0.877119 1.000000 0.039396 1.000000 0.036985 1.000000 0.078204 0.504252 1.000000 0.283947 0.190819 1.000000 0.165074 0.306726 0.585881 -0.605227 0.019346 0.046447 0.620789 -0.122895 -0.482682 0.790735 -0.308053 -0.337455 -0.021078 -0.408307 0.595841 -0.615516 0.019675 0.073859 0.987178 -0.195428 -0.470477 1.141822 -0.671345 -0.379467 -0.074791 -0.497805 0.867395 0.061368 0.927701 0.121674 -0.125283 -0.185589 -0.284849 -0.345155 -0.742112 -0.582546 0.063915 0.223481 0.927701 2.038606
379.000000 0.000000 118.000000 0.470000 22559.332000 13.000000 6.000000 -0.204835 0.969673 -0.133330 -0.949361 -0.230682 -0.219628 -0.243643 0.080358 0.967307 0.705419 -0.660490 -0.044929 -0.159724 0.571094 -0.029617 0.000000 0.000000 0.000000 1.000000 0.076698 0.504881 0.045945 0.876605 1.000000 0.039361 1.000000 0.036862 1.000000 0.076698 0.504881 1.000000 0.284350 0.190660 1.000000 0.165051 0.306786 0.705723 -0.660557 -0.045166 -0.159699 0.570875 -0.029729 -0.594906 0.812369 -0.217463 -0.354987 0.202851 -0.350369 0.717720 -0.671786 -0.045934 -0.253954 0.907805 -0.047275 -0.621226 1.167014 -0.545788 -0.357044 0.265358 -0.392863 1.041550 0.300330 0.834197 0.092977 -0.396137 -0.188784 -0.434736 -0.227384 -0.645413 -0.606813 0.095807 0.134406 1.041550 2.031085
380.000000 0.000000 116.000000 0.770000 19833.875000 14.000000 6.000000 -0.204957 0.969671 -0.133155 -0.949713 -0.231104 -0.219107 -0.243773 0.080294 0.967644 0.928082 -0.753434 -0.174648 -0.468489 0.511076 0.134034 0.000000 0.000000 0.000000 1.000000 0.074545 0.505644 0.045726 0.876444 1.000000 0.039408 1.000000 0.036832 1.000000 0.074545 0.505644 1.000000 0.284580 0.190465 1.000000 0.165033 0.306885 0.928215 -0.753775 -0.174440 -0.468449 0.511191 0.133732 -0.761431 0.850792 -0.089362 -0.412455 0.567087 -0.285005 0.943995 -0.766590 -0.177405 -0.744928 0.812896 0.212660 -0.839153 1.212982 -0.373829 -0.352512 0.813953 -0.267698 1.334322 0.670595 0.726091 0.062364 -0.848743 -0.240512 -0.675107 -0.066876 -0.485579 -0.659215 0.178148 0.004512 1.334322 2.459312
381.000000 0.000000 109.000000 1.420000 16236.785000 15.000000 6.000000 -0.204847 0.969708 -0.133054 -0.950445 -0.234277 -0.217791 -0.243993 0.080889 0.967652 1.347063 -1.477170 0.130107 -1.096773 0.160738 1.743078 0.000000 0.000000 0.000000 1.000000 0.066602 0.512411 0.048810 0.874959 1.000000 0.039931 1.000000 0.037064 1.000000 0.066602 0.512411 1.000000 0.283619 0.191015 1.000000 0.162227 0.309718 1.347208 -1.477090 0.129882 -1.097023 0.160778 1.743028 -1.061703 0.381306 0.680397 0.043739 2.076419 -1.045499 1.370110 -1.502201 0.132090 -1.744486 0.255669 2.771762 -0.966557 0.325597 0.640960 0.406888 3.212020 -1.287915 1.989176 1.780423 0.564809 0.356056 -2.349170 -0.924803 -0.086036 1.338331 0.359994 -1.903140 0.568747 -1.694387 2.349170 6.212944
382.000000 0.000000 108.000000 1.900000 14168.122000 16.000000 6.000000 -0.204538 0.969777 -0.133026 -0.950320 -0.235764 -0.217141 -0.243848 0.081395 0.967327 1.279277 -1.641090 0.361813 -1.242467 -0.072163 2.673095 0.000000 0.000000 0.000000 1.000000 0.063120 0.515434 0.051097 0.874707 1.000000 0.040125 1.000000 0.037244 1.000000 0.063120 0.515434 1.000000 0.282660 0.191440 1.000000 0.160257 0.311408 1.279421 -1.641010 0.361590 -1.242740 -0.072314 2.672840 -0.913712 -0.094562 1.008274 0.438054 2.756117 -1.485163 1.301171 -1.668908 0.367737 -1.976205 -0.114993 4.250350 -0.654023 -0.465505 1.119528 0.952869 4.320681 -1.940546 1.972366 2.066258 0.358801 0.452693 -2.923054 -1.309489 0.547343 2.160908 0.950688 -2.519709 0.856796 -2.613601 2.923054 8.536543
383.000000 0.000000 99.000000 2.350000 11479.041000 17.000000 6.000000 -0.204028 0.969924 -0.132740 -0.949680 -0.238060 -0.216286 -0.243559 0.082215 0.967287 1.196998 -1.496869 0.299871 -1.254833 -0.528223 4.193442 0.000000 0.000000 0.000000 1.000000 0.057731 0.520037 0.053675 0.874621 1.000000 0.040549 1.000000 0.037451 1.000000 0.057731 0.520037 1.000000 0.281756 0.191355 1.000000 0.157213 0.314120 1.197070 -1.497122 0.300052 -1.254627 -0.528398 4.193417 -0.221415 -1.190748 1.412162 0.822336 3.803589 -2.108591 1.217420 -1.522573 0.305153 -1.995108 -0.840259 6.668372 0.375814 -2.178650 1.802837 1.556681 5.983424 -2.967626 1.590063 2.276131 -0.038936 0.647132 -3.909283 -2.280284 1.535420 3.164420 2.319220 -3.125483 1.633151 -3.811552 3.909283 12.381487
384.000000 0.000000 100.000000 2.820000 9866.656000 18.000000 6.000000 -0.203727 0.970036 -0.132383 -0.948992 -0.239352 -0.215602 -0.243379 0.082674 0.967245 1.030943 -1.192686 0.161743 -1.313197 -0.878636 5.131310 0.000000 0.000000 0.000000 1.000000 0.054183 0.522485 0.055039 0.874165 1.000000 0.040617 1.000000 0.037644 1.000000 0.054183 0.522485 1.000000 0.281593 0.190957 1.000000 0.155611 0.315687 1.030867 -1.192671 0.161804 -1.313217 -0.878514 5.131309 0.361956 -1.980195 1.618239 1.087311 4.482062 -2.340034 1.048392 -1.212946 0.164554 -2.088277 -1.397012 8.159807 1.155456 -3.373387 2.217931 1.968774 7.059909 -3.414428 1.205395 2.346051 -0.499676 0.640979 -4.544588 -2.839517 2.117867 3.822938 3.339193 -3.323262 2.198537 -4.463917 4.544588 14.919154
385.000000 0.000000 87.000000 4.380000 7760.210000 19.000000 6.000000 -0.202264 0.970408 -0.131899 -0.945379 -0.243280 -0.213254 -0.242356 0.085413 0.964940 -0.644069 0.006972 0.637097 -1.285383 -2.343966 8.388686 0.000000 0.000000 0.000000 1.000000 0.044896 0.529270 0.064714 0.869704 1.000000 0.040889 1.000000 0.038416 1.000000 0.044896 0.529270 1.000000 0.279431 0.191737 1.000000 0.147711 0.323201 -0.643935 0.006890 0.637045 -1.285350 -2.343553 8.387757 2.618820 -5.037816 2.418997 2.967285 6.348155 -3.124190 -0.654882 0.007007 0.647875 -2.043964 -3.726717 13.338211 4.156791 -8.027756 3.870965 4.372011 10.213868 -4.960519 -0.957196 2.085656 -2.626086 0.416766 -5.747898 -4.079009 5.142705 6.811595 6.705095 -4.185509 3.662243 -7.228361 7.228361 24.273344
386.000000 0.000000 107.000000 1.000000 23827.768000 20.000000 6.000000 -0.787293 -0.314585 0.530288 0.599822 -0.591175 0.540052 0.144915 0.742220 0.653114 -0.103258 -0.568875 0.672133 -0.428857 0.622687 -0.061433 0.000000 0.000000 0.000000 0.291711 1.000000 0.386155 1.000000 0.008592 0.198207 0.223004 1.000000 0.048857 0.291711 1.000000 0.386155 0.280339 0.722884 1.000000 0.125467 0.012130 1.000000 -0.103252 -0.568902 0.672154 -0.428875 0.622682 -0.061586 -0.412874 0.866417 -0.453543 0.096923 -0.214587 -0.591310 -0.105007 -0.578574 0.683581 -0.681997 0.990189 -0.097935 -0.510815 1.005115 -0.494299 0.121352 -0.215810 -1.021104 0.876000 0.067514 0.319152 -0.489334 0.083497 0.640346 0.003534 0.560382 -0.959497 -0.879534 -0.151011 -0.071048 0.959497 2.363291
387.000000 0.000000 114.000000 0.890000 32938.702000 21.000000 6.000000 0.787669 0.313790 -0.530201 -0.599599 0.591485 -0.540510 0.145459 0.742626 0.653044 0.107139 -0.654629 0.547489 0.470777 -0.679210 0.051820 0.000000 0.000000 0.000000 0.293945 1.000000 0.387899 1.000000 0.007473 0.199536 0.223767 1.000000 0.048174 0.293945 1.000000 0.387899 0.280695 0.726796 1.000000 0.124685 0.012271 1.000000 0.107292 -0.654726 0.547434 0.470928 -0.679338 0.051544 -0.443214 0.764104 -0.320890 0.116805 -0.387235 -0.671293 0.109116 -0.665856 0.556740 0.748870 -1.080284 0.081965 -0.614919 0.911721 -0.296802 0.143098 -0.408979 -1.131674 -0.430368 0.451680 0.181082 1.063130 0.455005 -0.156445 0.521929 -0.089521 -0.024637 -0.091561 -0.906685 -0.973609 1.063130 2.520210
388.000000 0.000000 112.000000 0.900000 25713.652000 22.000000 6.000000 -0.599024 0.591126 -0.540129 -0.787177 -0.313465 0.530102 0.145404 0.742035 0.652535 -0.587418 -0.045380 0.632797 0.576646 0.459385 0.042070 0.000000 0.000000 0.000000 0.293876 1.000000 0.388712 1.000000 0.007494 0.199617 0.224079 1.000000 0.047979 0.293876 1.000000 0.388712 0.280926 0.727736 1.000000 0.124689 0.012445 1.000000 -0.587800 -0.045634 0.633434 0.577008 0.459861 0.042004 -0.398611 0.826580 -0.427969 0.049010 -0.263304 -0.579842 -0.597792 -0.046410 0.644202 0.917559 0.731271 0.066795 -0.504475 0.963327 -0.458852 0.042827 -0.272276 -0.997947 -0.301152 -0.898233 0.448031 -0.149049 0.854365 0.105181 0.908903 0.159720 -0.553212 -0.607751 0.043868 -0.010670 0.908903 2.303293
389.000000 0.000000 107.000000 0.960000 22275.050000 23.000000 6.000000 -0.598663 0.591292 -0.540348 -0.787443 -0.313024 0.530218 0.145527 0.742469 0.652222 -0.498080 -0.088605 0.586686 0.593673 0.266569 0.089246 0.000000 0.000000 0.000000 0.294740 1.000000 0.389932 1.000000 0.006189 0.200411 0.224961 1.000000 0.047580 0.294740 1.000000 0.389932 0.281738 0.730342 1.000000 0.123957 0.013175 1.000000 -0.498412 -0.088641 0.587054 0.594025 0.266936 0.089306 -0.319851 0.745899 -0.426048 0.197439 -0.161568 -0.497362 -0.506886 -0.090148 0.597033 0.944619 0.424482 0.142015 -0.381841 0.860692 -0.478851 0.285586 -0.146547 -0.861645 -0.382477 -0.729066 0.388801 0.042213 0.778335 0.007056 0.894290 0.123011 -0.395857 -0.511812 -0.049269 -0.165224 0.894290 2.051887
390.000000 0.000000 105.000000 1.000000 19282.544000 24.000000 6.000000 -0.598078 0.591587 -0.540674 -0.787600 -0.312446 0.529931 0.146028 0.742538 0.652017 -0.571177 0.048355 0.522821 0.746832 0.294863 0.156711 0.000000 0.000000 0.000000 0.296783 1.000000 0.391167 1.000000 0.005337 0.201648 0.226065 1.000000 0.047483 0.296783 1.000000 0.391167 0.281917 0.734865 1.000000 0.123640 0.013411 1.000000 -0.571937 0.048390 0.523547 0.747427 0.295353 0.156971 -0.239326 0.723681 -0.484355 0.279342 -0.236943 -0.655994 -0.581660 0.049212 0.532448 1.188558 0.469670 0.249615 -0.286879 0.860670 -0.573791 0.408220 -0.208723 -1.105142 -0.551037 -0.934521 0.419416 0.035932 0.838155 -0.132299 1.041964 0.071510 -0.287117 -0.490927 0.096367 -0.107443 1.041964 2.454197
391.000000 0.000000 100.000000 0.780000 13168.532000 25.000000 6.000000 -0.598091 0.591495 -0.540760 -0.787754 -0.312395 0.529886 0.145858 0.742427 0.652027 -0.577365 -0.040181 0.617546 0.666690 0.342798 0.086776 0.000000 0.000000 0.000000 0.296927 1.000000 0.391006 1.000000 0.005552 0.201259 0.226233 1.000000 0.047292 0.296927 1.000000 0.391006 0.282054 0.734427 1.000000 0.123577 0.013813 1.000000 -0.578209 -0.039946 0.618155 0.667315 0.343245 0.086878 -0.350125 0.807252 -0.457128 0.191781 -0.227711 -0.591148 -0.588039 -0.040625 0.628664 1.061165 0.545828 0.138154 -0.431536 0.941078 -0.509542 0.270626 -0.216746 -1.014127 -0.433866 -0.879533 0.432571 -0.013096 0.873534 0.007097 0.986336 0.119899 -0.439668 -0.552470 0.005999 -0.106803 0.986336 2.333076
392.000000 0.000000 112.000000 0.630000 23626.156000 26.000000 6.000000 0.049288 -0.105619 0.993184 0.180758 0.978561 0.094418 -0.982455 0.174496 0.065698 -0.140612 0.273889 -0.133277 0.314396 0.801653 0.336566 0.000000 0.000000 0.000000 1.000000 0.233636 0.103311 0.469797 1.000000 0.569946 0.387411 1.000000 0.150348 1.000000 0.233636 0.103311 1.000000 0.123523 0.225384 1.000000 0.043859 0.129885 -0.140065 0.273526 -0.133461 0.314409 0.801791 0.336277 -0.301157 0.683617 -0.382460 -0.023020 -0.486145 -0.567370 -0.142446 0.278176 -0.135730 0.499973 1.275009 0.534747 -0.409968 1.011423 -0.601455 0.070484 -0.749503 -0.936217 0.144689 -0.896352 0.552915 -0.488126 -0.011455 -0.419681 0.425165 0.016938 -0.133234 -0.569853 0.907806 0.471187 0.907806 2.580478
393.000000 0.000000 112.000000 0.600000 25401.843000 27.000000 6.000000 0.180978 0.978967 0.094180 -0.982724 0.174750 0.065861 0.049547 -0.105396 0.993408 0.174078 -0.136086 -0.037992 0.840569 0.327301 0.287552 0.000000 0.000000 0.000000 1.000000 0.233712 0.103715 0.468793 1.000000 0.570705 0.386899 1.000000 0.150085 1.000000 0.233712 0.103715 1.000000 0.124205 0.224955 1.000000 0.043016 0.130235 0.174007 -0.136013 -0.037995 0.840450 0.326907 0.287447 -0.303533 0.642599 -0.339066 0.076080 -0.519803 -0.578759 0.176965 -0.138325 -0.038640 1.336484 0.519848 0.457098 -0.410640 0.965488 -0.554848 0.175233 -0.811049 -0.947898 -0.204674 -0.629128 0.886561 0.462107 0.270987 -0.820248 0.644206 -0.447028 -0.066313 -0.439532 0.358141 -0.015079 0.886561 2.621837
394.000000 0.000000 110.000000 0.390000 22914.731000 28.000000 6.000000 0.180947 0.978997 0.093929 -0.982868 0.174616 0.065996 0.049706 -0.105219 0.993666 0.297875 -0.138727 -0.159148 0.823914 0.340881 0.350229 0.000000 0.000000 0.000000 1.000000 0.233131 0.104085 0.468498 1.000000 0.570745 0.385904 1.000000 0.149729 1.000000 0.233131 0.104085 1.000000 0.124537 0.224389 1.000000 0.042526 0.130424 0.298060 -0.138834 -0.159226 0.823575 0.340706 0.350024 -0.322959 0.713434 -0.390476 -0.042173 -0.488299 -0.600426 0.303127 -0.141195 -0.161932 1.309649 0.541791 0.556608 -0.442100 1.053075 -0.610975 0.051403 -0.750872 -0.991084 -0.132083 -0.574454 0.937241 0.494871 0.117568 -0.951756 0.572037 -0.497287 0.014516 -0.439953 0.456886 0.002417 0.951756 2.676315
395.000000 0.000000 108.000000 0.420000 20272.301000 29.000000 6.000000 0.180493 0.979124 0.093475 -0.982798 0.174192 0.066562 0.050136 -0.104986 0.993546 0.222369 -0.109280 -0.113089 0.713805 0.436833 0.305788 0.000000 0.000000 0.000000 1.000000 0.231131 0.105512 0.467071 1.000000 0.569658 0.384699 1.000000 0.148101 1.000000 0.231131 0.105512 1.000000 0.124288 0.223470 1.000000 0.041530 0.131046 0.222658 -0.109803 -0.112855 0.713721 0.436846 0.305775 -0.269554 0.731737 -0.462184 0.041841 -0.399401 -0.508712 0.226443 -0.111669 -0.114774 1.134960 0.694672 0.486244 -0.371871 1.101835 -0.729964 0.153412 -0.615953 -0.836705 -0.041713 -0.608910 0.884978 0.317780 0.125536 -0.801155 0.522552 -0.404138 -0.083823 -0.480839 0.483374 0.086358 0.884978 2.477254
396.000000 0.000000 110.000000 0.500000 17238.154000 30.000000 6.000000 0.180316 0.979159 0.093455 -0.982955 0.173658 0.067257 0.050360 -0.105045 0.993596 0.281001 -0.159905 -0.121096 0.458008 0.459553 0.459445 0.000000 0.000000 0.000000 1.000000 0.228897 0.107030 0.467636 1.000000 0.569695 0.384391 1.000000 0.147285 1.000000 0.228897 0.107030 1.000000 0.123701 0.223581 1.000000 0.041293 0.131457 0.281018 -0.159661 -0.121357 0.458046 0.459317 0.459125 -0.344282 0.779472 -0.435190 -0.031038 -0.114788 -0.468275 0.285795 -0.162375 -0.123420 0.728385 0.730405 0.730101 -0.464150 1.158131 -0.693981 0.054596 -0.158197 -0.782023 0.183790 -0.412584 0.778513 0.182140 -0.167762 -0.762486 0.428363 -0.166361 -0.016027 -0.612152 0.580346 -0.015779 0.778513 2.230732
397.000000 0.000000 107.000000 0.520000 16736.832000 31.000000 6.000000 0.180240 0.979181 0.093367 -0.982822 0.173615 0.066951 0.050540 -0.104834 0.993190 0.089257 -0.192471 0.103214 0.688574 0.406266 0.446814 0.000000 0.000000 0.000000 1.000000 0.229178 0.106461 0.466412 1.000000 0.569454 0.384280 1.000000 0.146767 1.000000 0.229178 0.106461 1.000000 0.123756 0.223342 1.000000 0.040687 0.131692 0.089455 -0.192407 0.102952 0.688583 0.406107 0.446465 -0.400987 0.716165 -0.315178 0.168249 -0.289578 -0.606250 0.090976 -0.195678 0.104702 1.094985 0.645792 0.709968 -0.532995 1.090208 -0.557213 0.262283 -0.451421 -0.992333 -0.066357 -0.593643 0.827695 0.300408 0.162787 -0.731265 0.742473 -0.151579 -0.096430 -0.676116 0.430857 -0.148830 0.827695 2.539011
398.000000 0.000000 93.000000 0.590000 11001.173000 32.000000 6.000000 0.180993 0.978999 0.093820 -0.982629 0.173715 0.066714 0.050193 -0.105049 0.992977 -0.042123 -0.135840 0.177963 0.662639 0.299605 0.761763 0.000000 0.000000 0.000000 1.000000 0.229961 0.105793 0.468038 1.000000 0.572058 0.385964 1.000000 0.148671 1.000000 0.229961 0.105793 1.000000 0.124433 0.224599 1.000000 0.041459 0.131315 -0.041768 -0.136072 0.177840 0.662339 0.299732 0.761780 -0.460902 0.643695 -0.182793 0.173942 -0.092451 -0.875150 -0.042478 -0.138385 0.180863 1.053251 0.476634 1.211383 -0.657125 1.010049 -0.352924 0.217857 -0.149093 -1.404573 -0.196249 -0.585419 0.663727 0.274557 0.026622 -0.833354 1.015712 0.155736 0.169627 -0.819463 0.558797 -0.430292 1.015712 2.914172
399.000000 0.000000 98.000000 0.640000 16571.336000 33.000000 6.000000 0.079761 -0.069737 0.994372 0.182809 0.980578 0.053666 -0.979966 0.176736 0.088048 -0.472411 0.609747 -0.137336 0.560345 1.469293 0.221002 0.000000 0.000000 0.000000 1.000000 0.186383 0.167035 0.362948 1.000000 0.608455 0.279894 1.000000 0.099827 1.000000 0.186383 0.167035 1.000000 0.191405 0.147976 1.000000 0.057550 0.104127 -0.472526 0.609631 -0.137106 0.559978 1.469064 0.220907 -0.529586 0.913806 -0.384220 -0.337647 -0.925660 -1.106785 -0.480559 0.619995 -0.139437 0.890478 2.336106 0.351286 -0.776584 1.332968 -0.556384 -0.247357 -1.414125 -1.812586 0.140876 -1.766546 0.867948 -1.039474 0.359386 -0.367686 0.646211 -0.080862 -0.500262 -0.787087 1.407160 1.120336 1.766546 4.480334
400.000000 0.000000 108.000000 0.450000 22408.164000 34.000000 6.000000 0.182261 0.981787 0.053621 -0.980683 0.176278 0.088539 0.078797 -0.069713 0.995291 0.387686 0.062235 -0.449920 0.720283 0.356678 0.463705 0.000000 0.000000 0.000000 1.000000 0.184271 0.167887 0.361706 1.000000 0.602973 0.280364 1.000000 0.100833 1.000000 0.184271 0.167887 1.000000 0.190328 0.147706 1.000000 0.055625 0.104274 0.387254 0.061649 -0.448903 0.719400 0.356670 0.462845 -0.196266 0.720022 -0.523757 -0.264639 -0.339179 -0.660230 0.393837 0.062697 -0.456535 1.143990 0.567176 0.736016 -0.351767 1.094448 -0.742681 -0.195938 -0.500820 -1.063050 -0.100296 -0.563393 0.833768 0.370671 -0.180608 -1.114672 0.420346 -0.513717 0.280904 -0.320051 0.744002 0.143047 1.114672 2.658488
401.000000 0.000000 102.000000 0.430000 19627.546000 35.000000 6.000000 0.181941 0.981846 0.053629 -0.980701 0.176322 0.088287 0.078614 -0.069452 0.995173 0.338486 0.009841 -0.348327 0.740728 0.259548 0.288006 0.000000 0.000000 0.000000 1.000000 0.184688 0.167365 0.360700 1.000000 0.600963 0.280166 1.000000 0.100756 1.000000 0.184688 0.167365 1.000000 0.189816 0.147529 1.000000 0.055579 0.103810 0.338079 0.009873 -0.347952 0.739694 0.259033 0.287158 -0.190211 0.583299 -0.393087 -0.193600 -0.455547 -0.551330 0.343826 0.010041 -0.353867 1.176261 0.411914 0.456639 -0.313060 0.875827 -0.562767 -0.123619 -0.691293 -0.894143 -0.175776 -0.512103 0.784637 0.448310 0.008952 -0.951461 0.381796 -0.578617 0.166824 -0.206020 0.503150 0.130306 0.951461 2.377111
402.000000 0.000000 88.000000 1.320000 11833.474000 36.000000 6.000000 0.182254 0.981793 0.053528 -0.979685 0.175851 0.088975 0.078574 -0.069256 0.994896 -0.098236 0.591408 -0.493172 0.318159 0.210292 0.571854 0.000000 0.000000 0.000000 1.000000 0.182530 0.168882 0.360792 1.000000 0.602818 0.280336 1.000000 0.101403 1.000000 0.182530 0.168882 1.000000 0.190648 0.147804 1.000000 0.055894 0.103509 -0.097787 0.590607 -0.492820 0.317785 0.210116 0.570707 0.315654 0.230331 -0.545985 -0.175595 0.098979 -0.710945 -0.099449 0.600647 -0.501198 0.505342 0.334126 0.907539 0.180200 0.485531 -0.665731 -0.168829 0.154564 -1.045693 -0.355712 -0.628525 0.056898 -0.215914 -0.328209 -0.740819 0.412793 0.000183 0.683921 -0.057081 0.956734 0.215732 0.956734 2.122431
403.000000 0.000000 82.000000 1.050000 9244.435000 37.000000 6.000000 0.182423 0.981804 0.052751 -0.980748 0.176210 0.089133 0.079125 -0.068757 0.995453 0.463422 0.031746 -0.495168 0.494237 0.280950 0.603087 0.000000 0.000000 0.000000 1.000000 0.182779 0.169463 0.359564 1.000000 0.603364 0.278159 1.000000 0.100738 1.000000 0.182779 0.169463 1.000000 0.192015 0.146133 1.000000 0.057420 0.102395 0.462615 0.031807 -0.494421 0.493664 0.280328 0.602486 -0.239924 0.670324 -0.430399 -0.393767 -0.099711 -0.635570 0.470479 0.032347 -0.502826 0.785024 0.445777 0.958073 -0.405990 0.998740 -0.592750 -0.368897 -0.112917 -1.031908 0.040370 -0.323606 0.681339 0.317363 -0.467997 -1.108967 0.314266 -0.326703 0.427628 -0.354636 0.791603 0.009340 1.108967 2.431357
404.000000 0.000000 83.000000 0.900000 8319.485000 38.000000 6.000000 0.182017 0.981952 0.051380 -0.979934 0.176300 0.089382 0.079015 -0.067894 0.993989 -0.298259 0.030243 0.268016 0.278010 0.609313 0.327940 0.000000 0.000000 0.000000 1.000000 0.181772 0.170791 0.353302 1.000000 0.599638 0.277599 1.000000 0.100532 1.000000 0.181772 0.170791 1.000000 0.193859 0.143471 1.000000 0.058398 0.100740 -0.298142 0.030394 0.267748 0.277642 0.608582 0.327584 -0.121053 0.633357 -0.512304 0.426197 0.077769 -0.329700 -0.303210 0.030911 0.272300 0.441506 0.967766 0.520924 -0.204569 1.059190 -0.854622 0.525910 0.094811 -0.503742 0.078441 -0.711737 0.438929 -0.351249 0.202529 -0.157960 0.627862 0.267373 -0.280969 -0.706302 0.509209 0.083876 0.711737 2.111669
405.000000 0.000000 73.000000 2.080000 6586.878000 39.000000 6.000000 -0.980240 0.176065 0.090165 0.182128 0.984508 0.047584 -0.079510 0.065749 -0.992618 0.098354 -2.234762 2.136408 -1.510934 -0.009233 0.448605 0.000000 0.000000 0.000000 1.000000 0.177385 0.174121 0.337867 1.000000 0.594239 0.275441 1.000000 0.099984 1.000000 0.177385 0.174121 1.000000 0.200615 0.136001 1.000000 0.062069 0.096357 0.098608 -2.234928 2.136320 -1.510964 -0.009180 0.448593 -0.083319 0.903085 -0.819767 2.410585 0.781545 -0.315570 0.100284 -2.272922 2.172638 -2.402735 -0.014597 0.713352 -0.152151 1.798168 -1.646017 2.658151 1.023759 -0.365650 1.943810 1.955729 -0.018015 -0.006096 -0.426102 1.535723 0.156347 2.118172 -1.517708 -2.100157 -1.529627 -2.112076 2.118172 5.804441
406.000000 0.000000 96.000000 0.710000 8347.292000 40.000000 6.000000 -0.047671 0.085326 -0.995212 -0.189082 -0.980455 -0.074751 -0.981141 0.182796 0.060856 0.397581 -0.915472 0.517891 -0.870999 -0.902464 0.126618 0.000000 0.000000 0.000000 1.000000 0.251012 0.100221 0.400270 1.000000 0.565633 0.346636 1.000000 0.172164 1.000000 0.251012 0.100221 1.000000 0.177531 0.184919 1.000000 0.018615 0.118173 0.397608 -0.915818 0.518210 -0.870970 -0.902743 0.126982 0.068670 0.115981 -0.184652 0.596412 -0.083900 -1.354052 0.404367 -0.931387 0.527020 -1.385016 -1.435543 0.201926 -0.158910 0.434189 -0.275279 0.605281 -0.218856 -2.028586 0.524692 1.696807 -0.606169 0.565947 -0.597793 0.533067 -0.432921 0.697939 0.073102 -0.091770 -1.099014 -1.263886 1.696807 3.744675
407.000000 0.000000 99.000000 0.750000 9906.615000 41.000000 6.000000 0.188990 0.979171 0.074206 -0.979423 0.182501 0.060693 0.046924 -0.084603 0.992592 -1.525966 0.345375 1.180591 0.581040 0.159545 0.951582 0.000000 0.000000 0.000000 1.000000 0.250725 0.100361 0.396436 1.000000 0.563146 0.347737 1.000000 0.174038 1.000000 0.250725 0.100361 1.000000 0.178735 0.184283 1.000000 0.019020 0.116704 -1.527921 0.346119 1.181801 0.581821 0.160143 0.952589 -0.118396 -0.031414 0.149811 1.211333 0.307303 -1.271455 -1.553895 0.352003 1.201892 0.925211 0.254660 1.514806 -0.350110 0.277993 0.072117 1.210448 0.355187 -1.874341 -1.051831 -1.259760 -0.296400 -0.504328 0.884344 0.128912 2.121178 1.365747 0.167487 -1.069347 0.375416 -0.861418 2.121178 3.952351
408.000000 0.000000 100.000000 0.830000 11138.331000 42.000000 6.000000 0.189083 0.979230 0.073189 -0.978359 0.182949 0.060099 0.046931 -0.083481 0.990505 -2.588772 0.285811 2.302961 0.839296 0.192328 0.725156 0.000000 0.000000 0.000000 1.000000 0.252055 0.099695 0.389476 1.000000 0.561209 0.347981 1.000000 0.174375 1.000000 0.252055 0.099695 1.000000 0.181047 0.182360 1.000000 0.017452 0.116296 -2.592520 0.286059 2.306461 0.840451 0.192667 0.726142 -0.152619 -0.316119 0.468737 2.301140 0.134518 -1.359164 -2.636593 0.290922 2.345670 1.336485 0.306379 1.154710 -0.351119 -0.000444 0.351564 2.360747 -0.008172 -1.945763 -1.615692 -1.865849 -0.524457 -0.774614 2.108210 1.016974 3.051027 1.959791 -0.492518 -1.435335 -0.242360 -1.185177 3.051027 5.333656
409.000000 0.000000 106.000000 0.840000 13981.863000 43.000000 6.000000 0.189133 0.979087 0.074953 -0.979927 0.183787 0.059997 0.046382 -0.085175 0.993367 -1.031414 0.152513 0.878901 0.756118 0.083580 0.448817 0.000000 0.000000 0.000000 1.000000 0.255054 0.098427 0.398945 1.000000 0.563042 0.348835 1.000000 0.175363 1.000000 0.255054 0.098427 1.000000 0.177902 0.185488 1.000000 0.020645 0.115918 -1.033114 0.152901 0.880213 0.756777 0.083762 0.449247 -0.121039 -0.000151 0.121190 0.918994 -0.197263 -0.903414 -1.050676 0.155500 0.895176 1.203427 0.133198 0.714392 -0.256925 0.207995 0.048929 0.955275 -0.402709 -1.345547 -0.929338 -1.038094 0.053255 -0.055501 0.994039 0.011445 1.577337 0.594744 -0.064700 -0.647999 0.044056 -0.539243 1.577337 2.970381
410.000000 0.000000 111.000000 0.480000 16599.594000 44.000000 6.000000 0.189074 0.979047 0.075617 -0.980795 0.183619 0.059747 0.045917 -0.085933 0.994448 -0.388885 -0.011569 0.400454 0.699940 0.128074 0.576505 0.000000 0.000000 0.000000 1.000000 0.255443 0.097514 0.402544 1.000000 0.562657 0.349428 1.000000 0.176139 1.000000 0.255443 0.097514 1.000000 0.176595 0.186535 1.000000 0.022540 0.115335 -0.389532 -0.011304 0.400837 0.700777 0.127790 0.577272 -0.297677 0.310852 -0.013176 0.389951 -0.176262 -0.849171 -0.396155 -0.011496 0.407651 1.114376 0.203211 0.917978 -0.459726 0.561394 -0.101668 0.410300 -0.312447 -1.324026 -0.529018 -0.694939 0.380867 0.214946 0.408332 -0.501553 1.157857 0.247973 0.120686 -0.628840 0.286607 -0.462918 1.157857 2.619601
411.000000 0.000000 115.000000 0.570000 20178.648000 45.000000 6.000000 0.188832 0.979156 0.074805 -0.979795 0.184448 0.058849 0.045772 -0.084754 0.992490 -1.370942 -0.109447 1.480389 1.042264 0.050782 0.005618 0.000000 0.000000 0.000000 1.000000 0.258155 0.096073 0.395442 1.000000 0.559140 0.349594 1.000000 0.176276 1.000000 0.258155 0.096073 1.000000 0.178012 0.184791 1.000000 0.021187 0.114557 -1.372630 -0.109448 1.482078 1.043662 0.050778 0.005662 -0.246338 -0.123912 0.370249 1.450445 -0.634230 -0.724959 -1.395964 -0.111309 1.507273 1.659631 0.080747 0.009003 -0.305097 0.025757 0.279340 1.547540 -1.120973 -1.067761 -1.169035 -1.234965 0.186048 0.120118 1.859108 0.504025 1.866459 0.511375 -0.690072 -0.697423 -0.624143 -0.631494 1.866459 3.825232
412.000000 0.000000 116.000000 0.690000 21225.793000 46.000000 6.000000 0.189097 0.979081 0.075122 -0.980217 0.184416 0.058834 0.045687 -0.085228 0.993121 -1.012354 -0.158852 1.171206 1.039657 0.101284 0.189390 0.000000 0.000000 0.000000 1.000000 0.258327 0.095848 0.397835 1.000000 0.560549 0.349923 1.000000 0.176804 1.000000 0.258327 0.095848 1.000000 0.177899 0.185414 1.000000 0.021947 0.114622 -1.014188 -0.158766 1.172954 1.041075 0.101136 0.189615 -0.348428 0.098274 0.250153 1.128559 -0.579292 -0.799236 -1.031429 -0.161465 1.192894 1.655517 0.160827 0.301526 -0.447200 0.308115 0.139085 1.212487 -1.002660 -1.217124 -0.965366 -1.096681 0.386358 0.255043 1.460841 0.109117 1.707035 0.355312 -0.495475 -0.741669 -0.364160 -0.610355 1.707035 3.513108
413.000000 0.000000 112.000000 0.510000 22793.783000 47.000000 6.000000 0.189353 0.979013 0.075358 -0.980163 0.184617 0.058798 0.045654 -0.085398 0.993385 -0.926530 -0.054151 0.980682 1.056402 0.051029 0.211891 0.000000 0.000000 0.000000 1.000000 0.258969 0.095638 0.399105 1.000000 0.561920 0.350208 1.000000 0.177296 1.000000 0.258969 0.095638 1.000000 0.178028 0.185952 1.000000 0.022167 0.114681 -0.927657 -0.054538 0.982195 1.057564 0.051404 0.212208 -0.256213 0.058207 0.198006 0.980093 -0.595749 -0.842978 -0.943427 -0.055465 0.998892 1.681738 0.081743 0.337454 -0.359546 0.247019 0.112526 1.051209 -1.023622 -1.280602 -1.015704 -1.082447 0.357430 0.290687 1.341750 -0.031383 1.617280 0.244146 -0.326046 -0.601576 -0.259303 -0.534833 1.617280 3.418007
414.000000 0.000000 110.000000 0.550000 23484.903000 48.000000 6.000000 0.189566 0.978993 0.075078 -0.979864 0.184883 0.059173 0.045597 -0.085192 0.993186 -1.073377 0.020151 1.053226 0.833330 0.096373 0.153765 0.000000 0.000000 0.000000 1.000000 0.258864 0.096570 0.398223 1.000000 0.562328 0.350180 1.000000 0.177857 1.000000 0.258864 0.096570 1.000000 0.178901 0.185642 1.000000 0.021934 0.114534 -1.074395 0.020038 1.054356 0.834258 0.096823 0.154070 -0.147323 -0.029776 0.177099 1.080294 -0.417790 -0.702663 -1.092660 0.020379 1.072281 1.326636 0.153968 0.245002 -0.224523 0.145441 0.079082 1.153262 -0.754385 -1.038138 -0.933136 -1.058850 0.150058 0.024344 1.325408 0.242214 1.525452 0.442258 -0.392272 -0.592316 -0.266558 -0.466602 1.525452 3.007864
415.000000 0.000000 115.000000 0.390000 26771.627000 49.000000 6.000000 0.189774 0.978937 0.075292 -0.980190 0.184977 0.059323 0.045553 -0.085610 0.993888 -0.712798 0.033665 0.679133 0.764725 0.165738 0.234338 0.000000 0.000000 0.000000 1.000000 0.259019 0.096731 0.400438 1.000000 0.563646 0.350234 1.000000 0.178237 1.000000 0.259019 0.096731 1.000000 0.178851 0.186084 1.000000 0.022537 0.114646 -0.714157 0.033966 0.680191 0.765731 0.165922 0.234203 -0.144148 0.148613 -0.004465 0.742260 -0.362121 -0.672396 -0.726297 0.034543 0.691754 1.217665 0.263849 0.372429 -0.234093 0.368253 -0.134160 0.810843 -0.636045 -1.014108 -0.700005 -0.915438 0.294214 0.078782 0.923983 -0.070236 1.228070 0.233851 -0.223978 -0.528065 -0.008545 -0.312632 1.228070 2.565915
416.000000 0.000000 114.000000 0.340000 26446.289000 50.000000 6.000000 0.190052 0.978875 0.075392 -0.980554 0.185221 0.059456 0.045621 -0.086020 0.994480 -0.367070 -0.030247 0.397316 0.769714 0.279241 0.282529 0.000000 0.000000 0.000000 1.000000 0.259498 0.096907 0.402277 1.000000 0.565273 0.350263 1.000000 0.178460 1.000000 0.259498 0.096907 1.000000 0.179100 0.186314 1.000000 0.022913 0.114960 -0.367333 -0.030293 0.397626 0.770819 0.279177 0.283388 -0.211065 0.393571 -0.182505 0.481879 -0.377495 -0.638985 -0.373578 -0.030808 0.404386 1.225756 0.443948 0.450643 -0.311844 0.685721 -0.373877 0.563078 -0.630359 -0.993294 -0.459107 -0.821589 0.541718 0.179236 0.634041 -0.366785 1.001989 0.001164 -0.174934 -0.542882 0.187548 -0.180400 1.001989 2.482739
417.000000 0.000000 116.000000 0.300000 28714.780000 51.000000 6.000000 0.190324 0.978823 0.075380 -0.980702 0.185259 0.059670 0.045777 -0.086180 0.994806 -0.196534 -0.025130 0.221664 0.749625 0.327647 0.408586 0.000000 0.000000 0.000000 1.000000 0.259305 0.097339 0.403342 1.000000 0.566915 0.350077 1.000000 0.178527 1.000000 0.259305 0.097339 1.000000 0.179536 0.186399 1.000000 0.022812 0.115343 -0.196836 -0.025208 0.222044 0.750329 0.327903 0.409348 -0.244774 0.521609 -0.276835 0.315249 -0.310597 -0.694446 -0.200182 -0.025637 0.225819 1.193173 0.521431 0.650945 -0.371553 0.860043 -0.488490 0.389950 -0.509866 -1.093136 -0.345495 -0.771242 0.628726 0.202980 0.395278 -0.578944 0.926772 -0.047449 -0.049782 -0.581277 0.375964 -0.155530 0.926772 2.548613
418.000000 0.000000 109.000000 0.400000 23588.624000 52.000000 6.000000 0.190576 0.978766 0.075478 -0.980738 0.185373 0.059877 0.046006 -0.086498 0.994866 -0.141246 -0.038344 0.179591 0.792064 0.401739 0.474792 0.000000 0.000000 0.000000 1.000000 0.259327 0.097732 0.404450 1.000000 0.568774 0.350488 1.000000 0.178353 1.000000 0.259327 0.097732 1.000000 0.179719 0.186763 1.000000 0.022761 0.115943 -0.140927 -0.038632 0.179558 0.792908 0.402595 0.475205 -0.283206 0.639408 -0.356202 0.288718 -0.308046 -0.746451 -0.143322 -0.039288 0.182611 1.260883 0.640207 0.755671 -0.426365 1.035235 -0.608869 0.373722 -0.500910 -1.181421 -0.295862 -0.818588 0.733645 0.210918 0.339314 -0.690193 0.956316 -0.073190 -0.043452 -0.660454 0.479275 -0.137728 0.956316 2.792012
419.000000 0.000000 101.000000 4.980000 15521.925000 53.000000 6.000000 0.181327 0.980042 0.081477 -0.983557 0.182846 0.054950 0.035357 -0.090565 0.998945 1.859972 -0.058949 -1.801023 -1.759571 0.483275 -2.652083 0.000000 0.000000 0.000000 1.000000 0.263230 0.084472 0.413454 1.000000 0.515385 0.360965 1.000000 0.187050 1.000000 0.263230 0.084472 1.000000 0.154635 0.193573 1.000000 0.048773 0.096735 1.862297 -0.058658 -1.803638 -1.762121 0.483537 -2.655771 1.107344 -0.031758 -1.075585 -1.272686 -0.202780 3.301735 1.893956 -0.059655 -1.834300 -2.802125 0.768921 -4.223207 1.757427 -0.400748 -1.356679 -1.054933 -0.177194 5.105597 2.255432 1.627611 -0.032494 -0.660315 -0.941900 1.346026 -4.390134 -2.102208 -1.313532 2.134702 -0.685711 2.762524 4.390134 9.448217
420.000000 0.000000 106.000000 2.840000 21921.963000 54.000000 6.000000 0.185232 0.979379 0.080664 -0.982384 0.182667 0.050270 0.035824 -0.089482 0.995651 0.263502 -0.221015 -0.042487 0.741669 0.342221 -0.491087 0.000000 0.000000 0.000000 1.000000 0.269835 0.075070 0.407561 1.000000 0.527362 0.363801 1.000000 0.192578 1.000000 0.269835 0.075070 1.000000 0.164705 0.192116 1.000000 0.045927 0.097833 0.263670 -0.221508 -0.042162 0.742664 0.342983 -0.492136 -0.072138 0.473923 -0.401785 0.129145 -0.867459 0.082372 0.268152 -0.225274 -0.042878 1.180984 0.545411 -0.782595 0.002479 0.668030 -0.670509 0.283747 -1.353082 0.087332 -0.058031 -0.503358 0.906238 0.460912 0.674650 -0.289619 0.035664 -0.928606 -0.616619 0.022367 -0.171293 0.467694 0.928606 2.664713
421.000000 0.000000 110.000000 0.410000 26550.632000 55.000000 6.000000 0.186306 0.979188 0.080509 -0.982156 0.181966 0.050479 0.035947 -0.089488 0.995450 0.085317 -0.059589 -0.025728 0.669243 0.392828 0.369470 0.000000 0.000000 0.000000 1.000000 0.267960 0.075649 0.408387 1.000000 0.531628 0.364275 1.000000 0.194123 1.000000 0.267960 0.075649 1.000000 0.166964 0.192294 1.000000 0.045599 0.098268 0.085010 -0.059343 -0.025667 0.669763 0.393283 0.369729 -0.231131 0.639608 -0.408477 0.087598 -0.302903 -0.575800 0.086455 -0.060351 -0.026104 1.065056 0.625399 0.587943 -0.336405 0.991544 -0.655138 0.167912 -0.473536 -0.928358 -0.119556 -0.630192 0.750059 0.239423 0.148829 -0.720786 0.628882 -0.240733 -0.029273 -0.509326 0.481363 0.001310 0.750059 2.373002
422.000000 0.000000 118.000000 0.490000 29016.592000 56.000000 6.000000 0.186386 0.979174 0.080493 -0.982087 0.181989 0.050493 0.036000 -0.089436 0.995403 0.047773 -0.033717 -0.014056 0.684265 0.370096 0.391981 0.000000 0.000000 0.000000 1.000000 0.267985 0.075687 0.408324 1.000000 0.532032 0.364240 1.000000 0.194148 1.000000 0.267985 0.075687 1.000000 0.167146 0.192306 1.000000 0.045418 0.098360 0.047599 -0.033949 -0.013650 0.685169 0.370761 0.392462 -0.217682 0.608967 -0.391285 0.100244 -0.299736 -0.614161 0.048408 -0.034526 -0.013882 1.089555 0.589584 0.624094 -0.328324 0.953946 -0.625622 0.175231 -0.472062 -0.983840 -0.170255 -0.651648 0.719363 0.237970 0.164594 -0.725024 0.674165 -0.215454 0.005661 -0.503910 0.487054 -0.022516 0.725024 2.403808
423.000000 0.000000 115.000000 0.670000 26058.674000 57.000000 6.000000 0.186457 0.979154 0.080570 -0.982050 0.182221 0.050466 0.035835 -0.089450 0.995426 0.055038 -0.030731 -0.024307 0.627085 0.350971 0.311174 0.000000 0.000000 0.000000 1.000000 0.268581 0.075578 0.408446 1.000000 0.531959 0.364522 1.000000 0.194663 1.000000 0.268581 0.075578 1.000000 0.167195 0.192487 1.000000 0.045707 0.098073 0.055240 -0.031010 -0.024230 0.627977 0.351418 0.311203 -0.181126 0.559094 -0.377968 0.092619 -0.301006 -0.523152 0.056179 -0.031537 -0.024642 0.998609 0.558825 0.494874 -0.271964 0.873749 -0.601784 0.167959 -0.473563 -0.839369 -0.143731 -0.600010 0.671630 0.215351 0.172654 -0.642707 0.576717 -0.238644 -0.028923 -0.432986 0.427356 0.023293 0.671630 2.161101
424.000000 0.000000 100.000000 0.580000 15907.209000 58.000000 6.000000 0.186530 0.979167 0.080244 -0.981867 0.182563 0.050660 0.035936 -0.089240 0.995251 -0.043346 -0.022706 0.066053 0.577920 0.407219 0.161989 0.000000 0.000000 0.000000 1.000000 0.268922 0.076112 0.407300 1.000000 0.532070 0.364189 1.000000 0.194606 1.000000 0.268922 0.076112 1.000000 0.167877 0.191938 1.000000 0.045204 0.098182 -0.043788 -0.022471 0.066259 0.578579 0.407677 0.161891 -0.117678 0.525945 -0.408266 0.217711 -0.320721 -0.389533 -0.044533 -0.022853 0.067386 0.920057 0.648288 0.257439 -0.173894 0.840493 -0.666599 0.316816 -0.512800 -0.618654 -0.119800 -0.649125 0.631423 0.102098 0.316203 -0.435020 0.526401 -0.224822 -0.196403 -0.406601 0.332922 0.122724 0.649125 2.002433
425.000000 0.000000 77.000000 0.720000 8174.024000 59.000000 6.000000 0.023820 -0.053768 0.998269 -0.173547 -0.984317 -0.047623 0.984796 -0.171187 -0.031525 0.232155 -0.401903 0.169748 0.451639 -0.596227 -0.625011 0.000000 0.000000 0.000000 1.000000 0.260548 0.048765 0.288125 1.000000 0.416968 0.283188 1.000000 0.205604 1.000000 0.260548 0.048765 1.000000 0.208617 0.111746 1.000000 0.023955 0.059749 0.232268 -0.401754 0.169487 0.452059 -0.596389 -0.624899 -0.023033 0.646568 -0.623536 0.434443 -0.074036 -0.688960 0.236216 -0.408584 0.172368 0.718864 -0.948378 -0.993715 -0.124046 1.119402 -0.995356 0.520529 -0.152058 -1.051769 -0.417410 0.356937 0.169540 0.943888 0.673092 0.086141 -0.138273 -0.725224 -0.255681 0.555683 -1.030029 -0.218664 1.030029 2.754931
426.000000 0.000000 97.000000 0.550000 7216.330000 60.000000 6.000000 -0.645137 -0.501441 -0.576503 -0.553789 0.825536 -0.100218 0.525736 0.255861 -0.810317 -0.548500 0.335519 0.212981 -0.643778 0.161226 -0.545185 0.000000 0.000000 0.000000 0.098175 0.042911 1.000000 0.327648 0.610230 1.000000 0.258129 1.000000 0.298125 0.098175 0.042911 1.000000 0.735662 0.791545 1.000000 0.347620 1.000000 0.252985 -0.548633 0.335190 0.213443 -0.643549 0.161326 -0.545246 -0.189009 0.603902 -0.414894 -0.060891 -0.270136 -0.777154 -0.557960 0.340888 0.217072 -1.023371 0.256540 -0.867051 -0.263029 1.064670 -0.801642 -0.033498 -0.419610 -1.001168 0.155568 -0.053896 -0.680010 -0.889475 0.252588 1.088167 -0.455356 0.380223 -0.408156 0.299788 -0.198692 0.509252 1.088167 2.511295
427.000000 0.000000 115.000000 0.570000 28287.323000 0.000000 7.000000 0.691076 -0.257841 -0.675228 -0.194907 0.833870 -0.518930 0.698026 0.489531 0.525745 0.982375 -0.323662 -0.658713 0.333122 -0.583517 -0.346758 0.000000 0.000000 0.000000 0.006281 1.000000 0.480067 0.149302 0.875102 1.000000 1.000000 0.642441 0.261620 0.006281 1.000000 0.480067 0.765554 0.724448 1.000000 0.168725 0.012177 1.000000 0.982209 -0.323625 -0.658584 0.333362 -0.583368 -0.346804 -0.422453 0.833404 -0.410951 0.067529 -0.252369 -0.856806 0.998907 -0.329126 -0.669780 0.530112 -0.927672 -0.551488 -0.749813 1.308524 -0.558710 -0.046782 -0.208180 -0.940357 -0.052971 0.704470 0.379864 1.137305 -0.239677 -0.672512 -0.689965 -1.122800 0.292648 0.742936 -0.464793 -0.014505 1.137305 2.582502
428.000000 0.000000 118.000000 0.340000 33201.539000 1.000000 7.000000 -0.195203 0.833203 -0.517367 -0.697552 -0.488342 -0.524997 -0.689617 0.257138 0.675061 -0.320682 -0.659319 0.980001 -0.534551 0.196074 -0.445748 0.000000 0.000000 0.000000 0.007731 1.000000 0.481238 0.147997 0.870384 1.000000 1.000000 0.646393 0.262430 0.007731 1.000000 0.481238 0.769425 0.727204 1.000000 0.170174 0.013068 1.000000 -0.321222 -0.660198 0.981421 -0.534927 0.196399 -0.446080 -0.447425 0.778819 -0.331394 0.054481 -0.423611 -0.796319 -0.326683 -0.671422 0.998105 -0.850641 0.312314 -0.709357 -0.789114 1.223121 -0.434006 -0.067281 -0.479989 -0.844232 0.615513 0.360510 -0.079032 -0.334035 0.483164 1.177709 -0.096024 0.598521 -1.098677 -0.519489 -0.843673 -0.264486 1.177709 2.510690
429.000000 0.000000 116.000000 0.370000 30186.490000 2.000000 7.000000 -0.195065 0.833127 -0.517541 -0.697564 -0.488094 -0.525271 -0.689794 0.257083 0.674918 -0.306043 -0.676684 0.982727 -0.590008 0.281270 -0.636631 0.000000 0.000000 0.000000 0.007298 1.000000 0.480138 0.148172 0.869185 1.000000 1.000000 0.645469 0.262468 0.007298 1.000000 0.480138 0.769212 0.726615 1.000000 0.169878 0.013484 1.000000 -0.306591 -0.677294 0.983885 -0.591275 0.281619 -0.637515 -0.536768 0.939702 -0.402934 -0.095669 -0.491036 -0.823829 -0.311803 -0.688808 1.000611 -0.940246 0.447831 -1.013777 -0.927624 1.482715 -0.555091 -0.303215 -0.587720 -0.882001 0.720592 0.354939 -0.047116 -0.412768 0.565810 1.333517 -0.261935 0.505772 -1.286401 -0.458656 -0.920749 -0.093004 1.333517 2.948970
430.000000 0.000000 116.000000 0.360000 31723.162000 3.000000 7.000000 -0.697333 -0.488085 -0.524881 -0.689407 0.257010 0.674599 -0.195009 0.832907 -0.517216 -0.718416 1.075523 -0.357106 0.203929 -0.467663 -0.612293 0.000000 0.000000 0.000000 0.007404 1.000000 0.480644 0.147897 0.870557 1.000000 1.000000 0.645878 0.262750 0.007404 1.000000 0.480644 0.769200 0.726395 1.000000 0.170058 0.013271 1.000000 -0.718537 1.075373 -0.356836 0.204213 -0.467413 -0.612046 -0.509581 0.864574 -0.354993 0.087061 -0.451296 -0.870038 -0.730752 1.093655 -0.362903 0.324739 -0.743280 -0.973275 -0.896947 1.356931 -0.459984 -0.031041 -0.505463 -0.922462 -1.180828 -0.573943 -0.915680 -0.308794 0.680086 0.414938 -0.114590 -0.379738 0.500742 1.295418 -0.106143 0.688532 1.295418 2.758300
431.000000 0.000000 116.000000 0.370000 29801.511000 4.000000 7.000000 -0.194958 0.833241 -0.517398 -0.697559 -0.488248 -0.525141 -0.689680 0.257106 0.674794 -0.358317 -0.732221 1.090538 -0.601737 0.225178 -0.436896 0.000000 0.000000 0.000000 0.007281 1.000000 0.480398 0.147888 0.870474 1.000000 1.000000 0.645365 0.263044 0.007281 1.000000 0.480398 0.769306 0.725937 1.000000 0.169909 0.013390 1.000000 -0.358215 -0.731698 1.089913 -0.601016 0.224759 -0.436622 -0.484744 0.848473 -0.363729 0.097148 -0.426453 -0.890668 -0.364305 -0.744137 1.108441 -0.955736 0.357412 -0.694317 -0.857640 1.331970 -0.474330 -0.016609 -0.463000 -0.948059 0.691156 0.399330 -0.089199 -0.381025 0.494522 1.274877 -0.072385 0.707970 -1.185678 -0.618771 -0.893852 -0.326945 1.274877 2.728076
432.000000 0.000000 111.000000 0.620000 18106.464000 5.000000 7.000000 -0.194775 0.833271 -0.517418 -0.697280 -0.488170 -0.525594 -0.690114 0.256872 0.674844 -0.265119 -0.644072 0.909191 -0.557036 0.359359 -0.493622 0.000000 0.000000 0.000000 0.006682 1.000000 0.479973 0.149035 0.867780 1.000000 1.000000 0.643880 0.263732 0.006682 1.000000 0.479973 0.770258 0.727062 1.000000 0.169049 0.014265 1.000000 -0.264656 -0.644142 0.908798 -0.556859 0.359136 -0.493327 -0.461299 0.866084 -0.404784 -0.078329 -0.328915 -0.812518 -0.269155 -0.655092 0.924247 -0.885517 0.571097 -0.784489 -0.797507 1.371227 -0.573720 -0.260319 -0.345825 -0.890814 0.752219 0.285920 0.029197 -0.437102 0.445960 1.168982 -0.194573 0.528449 -1.198178 -0.557646 -0.731879 -0.091347 1.198178 2.685309
433.000000 0.000000 112.000000 1.420000 12424.079000 6.000000 7.000000 -0.194178 0.833245 -0.517686 -0.696692 -0.487426 -0.527895 -0.690773 0.256618 0.673762 -0.230585 -1.051998 1.282583 -0.249643 0.421360 -1.209542 0.000000 0.000000 0.000000 0.002913 1.000000 0.473312 0.150841 0.860534 1.000000 1.000000 0.640259 0.265274 0.002913 1.000000 0.473312 0.772955 0.728285 1.000000 0.167340 0.016266 1.000000 -0.230984 -1.051063 1.282048 -0.249624 0.421161 -1.208648 -0.356367 0.872349 -0.515982 -0.610957 -0.936741 -1.128503 -0.234911 -1.068931 1.303843 -0.396952 0.669730 -1.921992 -0.621820 1.413309 -0.791489 -1.133366 -1.248758 -1.183160 0.775958 0.229126 0.451848 -0.094984 1.250788 1.574898 -0.318511 0.005599 -2.026747 -0.457447 -1.479915 0.089385 2.026747 4.152973
434.000000 0.000000 118.000000 0.620000 21563.174000 7.000000 7.000000 -0.193886 0.833295 -0.517713 -0.695095 -0.488366 -0.528101 -0.692456 0.256308 0.672642 -0.302915 -0.578038 0.880953 -0.464726 0.200040 -0.610602 0.000000 0.000000 0.000000 0.000433 1.000000 0.473321 0.156533 0.863395 1.000000 1.000000 0.636112 0.267665 0.000433 1.000000 0.473321 0.772124 0.733957 1.000000 0.163904 0.017387 1.000000 -0.302454 -0.577728 0.880182 -0.464810 0.199943 -0.610348 -0.424401 0.788055 -0.363655 -0.098435 -0.511188 -0.700597 -0.307596 -0.587549 0.895145 -0.739141 0.317950 -0.970576 -0.751276 1.238375 -0.487099 -0.296032 -0.638002 -0.740059 0.545846 0.286241 -0.057660 -0.317265 0.585500 1.189006 -0.206972 0.396534 -1.131346 -0.338874 -0.871741 -0.079269 1.189006 2.574876
435.000000 0.000000 114.000000 0.640000 18641.152000 8.000000 7.000000 -0.193928 0.833261 -0.517753 -0.694982 -0.488081 -0.528329 -0.692365 0.256325 0.672564 -0.371969 -0.550979 0.922948 -0.370457 0.185010 -0.811320 0.000000 0.000000 0.000000 0.000273 1.000000 0.472270 0.156634 0.862110 1.000000 1.000000 0.636353 0.267490 0.000273 1.000000 0.472270 0.772384 0.734522 1.000000 0.163942 0.017626 1.000000 -0.371949 -0.550231 0.922180 -0.370284 0.184798 -0.810615 -0.360268 0.809355 -0.449088 -0.216819 -0.691266 -0.675272 -0.378272 -0.559585 0.937857 -0.588825 0.293866 -1.289040 -0.666944 1.258372 -0.591428 -0.501985 -0.912322 -0.699448 0.434378 0.194438 -0.046396 -0.286336 0.823169 1.303943 -0.229328 0.251446 -1.257547 -0.205050 -1.017606 0.034890 1.303943 2.878853
436.000000 0.000000 109.000000 1.050000 11228.623000 9.000000 7.000000 -0.193848 0.833173 -0.517924 -0.694667 -0.487787 -0.528574 -0.692559 0.256328 0.672237 -0.477665 -0.423991 0.901656 -0.369958 0.176930 -1.005767 0.000000 0.000000 0.000000 0.000257 1.000000 0.470757 0.157510 0.861330 1.000000 1.000000 0.635539 0.267553 0.000257 1.000000 0.470757 0.771930 0.735144 1.000000 0.163397 0.018120 1.000000 -0.477264 -0.423723 0.900988 -0.369747 0.176693 -1.005247 -0.366307 0.937062 -0.570755 -0.303644 -0.831142 -0.579652 -0.485378 -0.430927 0.916305 -0.587971 0.280978 -1.598544 -0.703691 1.435149 -0.731459 -0.659215 -1.131500 -0.592170 0.332517 0.103100 -0.147559 -0.376977 0.984799 1.464876 -0.320407 0.159670 -1.317316 -0.012110 -1.087899 0.217307 1.464876 3.291104
437.000000 0.000000 85.000000 1.410000 5550.034000 10.000000 7.000000 -0.194301 0.832896 -0.518201 -0.694829 -0.487068 -0.529665 -0.692475 0.255989 0.672463 -0.358635 -0.649677 1.008312 -0.143754 0.356573 -1.901106 0.000000 0.000000 0.000000 0.001141 1.000000 0.468664 0.157447 0.854366 1.000000 1.000000 0.637289 0.265915 0.001141 1.000000 0.468664 0.773534 0.737777 1.000000 0.164006 0.018813 1.000000 -0.358631 -0.649287 1.007918 -0.144127 0.356624 -1.899981 -0.392536 1.137519 -0.744983 -1.052269 -1.382381 -0.721915 -0.364728 -0.660325 1.025053 -0.229190 0.567103 -3.021349 -0.714946 1.789161 -1.074215 -1.835324 -1.996842 -0.723668 0.445762 -0.017276 0.258629 -0.204409 1.707270 1.894403 -0.759652 -0.572519 -2.153032 0.313889 -1.689994 0.776927 2.153032 5.562171
438.000000 0.000000 124.000000 0.420000 34130.643000 11.000000 7.000000 -0.243083 0.080098 0.966693 -0.948070 -0.229194 -0.220770 0.204129 -0.968617 0.133141 -0.379600 -0.433858 0.813459 0.461320 -0.751937 0.656887 0.000000 0.000000 0.000000 1.000000 0.081471 0.502553 0.043682 0.880862 1.000000 0.039562 1.000000 0.037092 1.000000 0.081471 0.502553 1.000000 0.283683 0.189848 1.000000 0.165786 0.305668 -0.379644 -0.434017 0.813661 0.461534 -0.752139 0.656785 -0.177666 0.713266 -0.535600 -0.855402 -0.540630 -0.519405 -0.386098 -0.441395 0.827493 0.733931 -1.196051 1.044420 -0.065483 1.059566 -0.994084 -1.033928 -0.960500 -0.724690 -0.765337 0.211235 -0.166085 0.810487 0.368690 -0.230562 1.221455 0.622203 0.396647 -0.456118 -0.579925 -1.432690 1.432690 3.274597
439.000000 0.000000 125.000000 0.300000 35801.522000 12.000000 7.000000 -0.204622 0.969716 -0.133345 -0.949009 -0.229828 -0.220729 -0.243493 0.080263 0.967604 0.692107 -0.388626 -0.303481 0.472744 0.683579 -0.375972 0.000000 0.000000 0.000000 1.000000 0.080367 0.503316 0.044399 0.878546 1.000000 0.039487 1.000000 0.036931 1.000000 0.080367 0.503316 1.000000 0.284315 0.190080 1.000000 0.165641 0.306124 0.690991 -0.388087 -0.302904 0.472499 0.682695 -0.375212 -0.197560 0.685037 -0.487476 -0.693583 -0.395992 -0.423308 0.702738 -0.394684 -0.308054 0.751368 1.085621 -0.596662 -0.120400 1.020986 -0.900586 -0.830897 -0.713052 -0.581871 0.584479 -0.301927 1.197968 0.311562 0.137677 -0.475812 -0.349495 -0.962985 -0.722156 -0.234983 0.164250 0.651422 1.197968 2.722896
440.000000 0.000000 123.000000 0.350000 28816.531000 13.000000 7.000000 -0.204603 0.969690 -0.133561 -0.948836 -0.230029 -0.220344 -0.243300 0.080560 0.966844 0.371801 -0.506353 0.134551 0.359057 0.617361 -0.252839 0.000000 0.000000 0.000000 1.000000 0.079835 0.503567 0.046370 0.877545 1.000000 0.039329 1.000000 0.036760 1.000000 0.079835 0.503567 1.000000 0.283866 0.190924 1.000000 0.164626 0.306716 0.371337 -0.505618 0.134281 0.358322 0.616785 -0.252732 -0.302460 0.677213 -0.374753 -0.280949 -0.362311 -0.472236 0.377649 -0.514213 0.136564 0.569804 0.980812 -0.401894 -0.233860 0.977983 -0.744123 -0.379593 -0.589176 -0.622398 0.531894 -0.268935 0.997137 0.196308 0.298271 -0.166971 -0.029874 -0.495117 -0.830166 -0.502020 -0.029337 0.298809 0.997137 2.232283
441.000000 0.000000 122.000000 0.430000 24552.909000 14.000000 7.000000 -0.204761 0.969689 -0.133328 -0.949237 -0.230321 -0.220040 -0.243434 0.080393 0.967309 0.654396 -0.603475 -0.050921 0.143255 0.583435 -0.181625 0.000000 0.000000 0.000000 1.000000 0.078228 0.504162 0.045582 0.877758 1.000000 0.039327 1.000000 0.036699 1.000000 0.078228 0.504162 1.000000 0.284312 0.190449 1.000000 0.164885 0.306523 0.653735 -0.602634 -0.051101 0.142773 0.582815 -0.181611 -0.463943 0.736331 -0.272388 -0.436367 -0.103573 -0.415524 0.664849 -0.612879 -0.051970 0.227038 0.926792 -0.288798 -0.441217 1.057088 -0.615871 -0.499230 -0.218547 -0.511245 0.807304 0.050581 0.992679 0.235957 -0.082051 -0.267426 -0.317853 -0.503229 -0.725253 -0.489450 0.031470 0.267273 0.992679 2.052365
442.000000 0.000000 114.000000 0.560000 20075.457000 15.000000 7.000000 -0.204964 0.969672 -0.133141 -0.949681 -0.230732 -0.219590 -0.243716 0.080191 0.967769 0.958909 -0.715076 -0.243832 -0.218212 0.568051 -0.076139 0.000000 0.000000 0.000000 1.000000 0.076107 0.505013 0.044934 0.877191 1.000000 0.039376 1.000000 0.036757 1.000000 0.076107 0.505013 1.000000 0.284780 0.190146 1.000000 0.165369 0.306441 0.957425 -0.714173 -0.243252 -0.217826 0.567548 -0.076237 -0.689462 0.865445 -0.175984 -0.564703 0.277826 -0.307524 0.973701 -0.726314 -0.247387 -0.346386 0.902515 -0.121232 -0.743317 1.244875 -0.501558 -0.568141 0.344695 -0.314850 1.203890 0.466990 0.921067 0.184167 -0.590426 -0.307602 -0.689411 -0.406588 -0.613464 -0.514478 0.123436 0.222422 1.203890 2.269995
443.000000 0.000000 111.000000 1.080000 17742.939000 16.000000 7.000000 -0.204997 0.969681 -0.133020 -0.950039 -0.231531 -0.218524 -0.243926 0.080225 0.967857 1.101375 -0.861350 -0.240025 -0.829351 0.472604 0.342719 0.000000 0.000000 0.000000 1.000000 0.072341 0.506405 0.045780 0.876246 1.000000 0.039429 1.000000 0.036964 1.000000 0.072341 0.506405 1.000000 0.284534 0.190439 1.000000 0.165092 0.307010 1.100153 -0.860427 -0.239727 -0.828473 0.471955 0.341872 -0.942291 0.917795 0.024496 -0.394771 0.977788 -0.229588 1.118856 -0.875054 -0.243802 -1.317438 0.750504 0.543644 -1.073980 1.300678 -0.226698 -0.259518 1.446950 -0.153746 1.658244 1.045460 0.582560 -0.030223 -1.316086 -0.240403 -0.872202 0.203481 -0.342157 -0.786041 0.270626 -0.173258 1.658244 3.301339
444.000000 0.000000 108.000000 1.310000 15170.522000 17.000000 7.000000 -0.204747 0.969725 -0.133084 -0.950609 -0.234259 -0.217598 -0.243932 0.080831 0.967657 1.380119 -1.556111 0.175991 -1.189131 0.220860 1.777928 0.000000 0.000000 0.000000 1.000000 0.066202 0.512299 0.048939 0.875775 1.000000 0.039908 1.000000 0.037128 1.000000 0.066202 0.512299 1.000000 0.283146 0.191224 1.000000 0.162236 0.309502 1.378602 -1.554275 0.175673 -1.187820 0.220968 1.775852 -1.149694 0.488284 0.661410 0.075541 2.155670 -1.065607 1.402038 -1.580698 0.178660 -1.888871 0.351383 2.823959 -1.069091 0.480163 0.588927 0.453932 3.340473 -1.299683 2.132277 1.845374 0.590020 0.303117 -2.423447 -0.881190 -0.117694 1.424563 0.291170 -2.014583 0.578073 -1.727680 2.423447 6.460844
445.000000 0.000000 103.000000 1.960000 12128.650000 18.000000 7.000000 -0.204534 0.969808 -0.132813 -0.950699 -0.235827 -0.216921 -0.243874 0.081068 0.967945 1.580916 -1.666835 0.085919 -1.375705 0.019723 2.708945 0.000000 0.000000 0.000000 1.000000 0.061960 0.515562 0.049844 0.876274 1.000000 0.040107 1.000000 0.037277 1.000000 0.061960 0.515562 1.000000 0.282687 0.190978 1.000000 0.160866 0.310682 1.578824 -1.664684 0.085861 -1.374017 0.019839 2.705721 -0.975379 0.029096 0.946282 0.199359 2.957972 -1.460029 1.605664 -1.692984 0.087320 -2.184961 0.031548 4.302637 -0.738100 -0.267694 1.005794 0.729324 4.589248 -1.899099 2.251554 2.225794 0.467540 0.441781 -3.268412 -1.484399 0.244676 2.028690 1.016858 -2.496230 1.042618 -2.470471 3.268412 8.834092
446.000000 0.000000 99.000000 2.580000 9897.705000 19.000000 7.000000 -0.203815 0.969958 -0.132821 -0.949841 -0.238093 -0.216029 -0.243438 0.082261 0.966755 1.054637 -1.748645 0.694008 -1.394067 -0.512793 4.310175 0.000000 0.000000 0.000000 1.000000 0.057482 0.520018 0.054825 0.875313 1.000000 0.040305 1.000000 0.037683 1.000000 0.057482 0.520018 1.000000 0.280836 0.191848 1.000000 0.156903 0.314101 1.052948 -1.746454 0.693507 -1.392446 -0.512033 4.305107 -0.444940 -1.065701 1.510641 1.131224 3.879221 -2.217886 1.070848 -1.776144 0.705296 -2.214268 -0.814236 6.845981 0.138745 -2.035122 1.896377 1.903194 6.156025 -3.071715 1.733840 2.398661 -0.074102 0.590719 -3.848067 -2.040125 1.741653 3.549595 2.114226 -3.475493 1.449406 -4.140314 4.140314 12.825697
447.000000 0.000000 82.000000 3.990000 7128.123000 20.000000 7.000000 -0.202104 0.970318 -0.132801 -0.947703 -0.241667 -0.215269 -0.242615 0.084329 0.964668 -0.024939 -1.570759 1.595697 -0.944714 -1.394902 7.177054 0.000000 0.000000 0.000000 1.000000 0.052058 0.527210 0.062962 0.874893 1.000000 0.040711 1.000000 0.038983 1.000000 0.052058 0.527210 1.000000 0.277067 0.192939 1.000000 0.150500 0.319951 -0.024519 -1.569078 1.593597 -0.943950 -1.393570 7.167617 1.025272 -3.280089 2.254817 2.686206 5.232917 -3.696293 -0.024936 -1.595752 1.620688 -1.501069 -2.216055 11.397945 2.381768 -5.545114 3.163347 3.838357 8.485091 -5.451642 0.349391 2.158792 -0.876227 0.933175 -4.594177 -3.368559 4.712206 5.937824 4.244786 -5.061597 2.435385 -6.870998 6.870998 20.469300
448.000000 0.000000 107.000000 0.950000 25795.453000 21.000000 7.000000 -0.787525 -0.313883 0.530360 -0.145467 -0.742823 -0.652847 0.599738 -0.591446 0.540495 0.131010 0.552804 -0.683813 0.380812 0.003129 -0.737545 0.000000 0.000000 0.000000 0.293403 1.000000 0.387809 1.000000 0.006903 0.199804 0.223362 1.000000 0.048023 0.293403 1.000000 0.387809 0.281278 0.726363 1.000000 0.124580 0.011977 1.000000 0.131035 0.552520 -0.683554 0.381008 0.002880 -0.737859 -0.390127 0.762652 -0.372524 0.224755 -0.383385 -0.671307 0.133262 0.561913 -0.695175 0.605878 0.004580 -1.173343 -0.532902 0.906469 -0.373567 0.313024 -0.388387 -1.131719 -0.420475 -0.424214 0.074223 0.070483 0.388156 -0.106542 -0.569875 -1.064572 0.032319 0.990349 0.036058 0.994089 1.064572 2.541001
449.000000 0.000000 106.000000 0.950000 24671.253000 22.000000 7.000000 -0.599088 0.591054 -0.540138 -0.786999 -0.313460 0.530109 0.145527 0.742135 0.652329 -0.647595 0.032695 0.614900 0.678380 0.445581 0.061526 0.000000 0.000000 0.000000 0.293707 1.000000 0.388599 1.000000 0.006970 0.200062 0.223745 1.000000 0.047806 0.293707 1.000000 0.388599 0.281359 0.727921 1.000000 0.124591 0.012039 1.000000 -0.648551 0.032746 0.615805 0.679059 0.445859 0.061760 -0.374756 0.827708 -0.452951 0.130713 -0.315472 -0.657432 -0.659576 0.033302 0.626274 1.079839 0.709006 0.098211 -0.481659 0.974937 -0.493278 0.167357 -0.317113 -1.118523 -0.434259 -1.013159 0.447426 -0.131474 0.925694 0.044009 1.005883 0.124198 -0.491436 -0.571624 0.087465 0.007276 1.013159 2.505537
450.000000 0.000000 108.000000 1.120000 28141.471000 23.000000 7.000000 -0.598835 0.591102 -0.540365 -0.787044 -0.313021 0.530063 0.145908 0.742276 0.651937 -0.722075 0.085222 0.636853 0.810419 0.449273 0.073301 0.000000 0.000000 0.000000 0.294696 1.000000 0.389499 1.000000 0.005858 0.201191 0.224167 1.000000 0.047310 0.294696 1.000000 0.389499 0.282167 0.730867 1.000000 0.124162 0.011975 1.000000 -0.722524 0.085388 0.637135 0.811010 0.450305 0.073516 -0.388618 0.876909 -0.488290 0.216074 -0.363512 -0.758626 -0.734807 0.086840 0.647967 1.289668 0.716074 0.116905 -0.507617 1.041403 -0.533786 0.297517 -0.358962 -1.281567 -0.569605 -1.154277 0.483405 -0.101267 1.043294 -0.009716 1.138746 0.085736 -0.473689 -0.569141 0.110983 0.015531 1.154277 2.831966
451.000000 0.000000 108.000000 0.920000 22504.059000 24.000000 7.000000 -0.598394 0.591348 -0.540585 -0.787368 -0.312400 0.529998 0.146181 0.742334 0.651857 -0.703029 0.077879 0.625150 0.762649 0.440606 0.045559 0.000000 0.000000 0.000000 0.296400 1.000000 0.391164 1.000000 0.005372 0.201857 0.225247 1.000000 0.047029 0.296400 1.000000 0.391164 0.282249 0.734173 1.000000 0.123732 0.012573 1.000000 -0.703604 0.078065 0.625539 0.762857 0.441352 0.045641 -0.400260 0.853914 -0.453654 0.191638 -0.360384 -0.714745 -0.715565 0.079392 0.636173 1.213095 0.701839 0.072578 -0.527558 1.011287 -0.483729 0.259988 -0.361203 -1.210539 -0.533259 -1.106308 0.457229 -0.115820 1.017459 0.026971 1.076719 0.086230 -0.484200 -0.543459 0.088849 0.029589 1.106308 2.700540
452.000000 0.000000 97.000000 0.710000 13323.683000 25.000000 7.000000 -0.598125 0.591486 -0.540732 -0.787523 -0.312141 0.530050 0.146240 0.742412 0.651755 -0.680265 0.032416 0.647849 0.722569 0.384598 0.102954 0.000000 0.000000 0.000000 0.297081 1.000000 0.391976 1.000000 0.004988 0.202141 0.225860 1.000000 0.046862 0.297081 1.000000 0.391976 0.282565 0.735775 1.000000 0.123499 0.013027 1.000000 -0.680742 0.032153 0.648589 0.723358 0.385311 0.103119 -0.346926 0.857803 -0.510877 0.206099 -0.307821 -0.655044 -0.692315 0.032700 0.659615 1.150285 0.612722 0.163980 -0.431475 1.004675 -0.573199 0.285514 -0.296490 -1.118807 -0.515445 -1.015731 0.423758 -0.076527 0.954580 0.015377 1.088469 0.149266 -0.439135 -0.573024 0.061150 -0.072739 1.088469 2.559221
453.000000 0.000000 114.000000 0.780000 23431.463000 26.000000 7.000000 0.181002 0.978949 0.094323 -0.049540 0.105622 -0.993572 -0.982809 0.174669 0.065888 0.259924 -0.137094 -0.122830 -0.835454 0.342249 -0.357684 0.000000 0.000000 0.000000 1.000000 0.233576 0.103705 0.469755 1.000000 0.571108 0.387154 1.000000 0.150100 1.000000 0.233576 0.103705 1.000000 0.123984 0.225233 1.000000 0.043340 0.130330 0.259736 -0.137040 -0.122696 -0.835417 0.342136 -0.357798 -0.303950 0.710019 -0.406069 -0.007401 -0.494310 -0.607082 0.264151 -0.139370 -0.124781 -1.328481 0.544065 -0.568970 -0.420125 1.057757 -0.637632 0.090964 -0.763724 -0.997229 0.929200 0.484973 -0.155500 -0.599727 -0.468850 0.615850 -0.933412 0.151288 -0.460350 0.004212 -0.016123 0.448439 0.933412 2.703875
454.000000 0.000000 111.000000 0.470000 24872.662000 27.000000 7.000000 0.181080 0.978954 0.094120 -0.982782 0.174649 0.066034 0.049728 -0.105431 0.993584 0.253303 -0.107522 -0.145782 0.836308 0.345806 0.387298 0.000000 0.000000 0.000000 1.000000 0.233234 0.104096 0.469309 1.000000 0.571662 0.386545 1.000000 0.149841 1.000000 0.233234 0.104096 1.000000 0.124421 0.224884 1.000000 0.042732 0.130604 0.253415 -0.107401 -0.146015 0.836469 0.345986 0.387153 -0.308430 0.707253 -0.398823 -0.018096 -0.471536 -0.646483 0.257723 -0.109226 -0.148497 1.330152 0.550187 0.615651 -0.435576 1.057108 -0.621532 0.074809 -0.728161 -1.057672 -0.168613 -0.617839 0.917452 0.468226 0.125855 -0.960210 0.628532 -0.457533 0.042758 -0.459919 0.491983 -0.010694 0.960210 2.739291
455.000000 0.000000 114.000000 0.480000 24248.645000 28.000000 7.000000 0.181130 0.978968 0.093878 -0.982740 0.174653 0.066042 0.049774 -0.105163 0.993560 0.223152 -0.097052 -0.126099 0.832276 0.331838 0.412186 0.000000 0.000000 0.000000 1.000000 0.233127 0.104211 0.468419 1.000000 0.571606 0.385955 1.000000 0.149878 1.000000 0.233127 0.104211 1.000000 0.124949 0.224406 1.000000 0.042281 0.130571 0.223516 -0.097315 -0.126201 0.831774 0.331566 0.412341 -0.308419 0.687367 -0.378948 -0.005252 -0.451369 -0.670916 0.227316 -0.098970 -0.128346 1.322688 0.527256 0.655704 -0.440607 1.033092 -0.592485 0.082330 -0.698615 -1.093322 -0.191528 -0.622031 0.888442 0.457939 0.127097 -0.952873 0.662477 -0.417493 0.064431 -0.470949 0.494934 -0.040446 0.952873 2.736651
456.000000 0.000000 104.000000 0.490000 19218.616000 29.000000 7.000000 0.180910 0.979036 0.093590 -0.982789 0.174378 0.066577 0.050165 -0.105099 0.993642 0.266531 -0.089744 -0.176788 0.736471 0.412835 0.422157 0.000000 0.000000 0.000000 1.000000 0.231605 0.105474 0.468092 1.000000 0.571604 0.385036 1.000000 0.148671 1.000000 0.231605 0.105474 1.000000 0.124833 0.223870 1.000000 0.041546 0.131228 0.267131 -0.089987 -0.177144 0.736514 0.412956 0.421846 -0.293008 0.757975 -0.464967 -0.031150 -0.364646 -0.611664 0.271672 -0.091517 -0.180155 1.171204 0.656682 0.670820 -0.420876 1.137910 -0.717035 0.065993 -0.557248 -1.001164 -0.061781 -0.597960 0.894503 0.358324 0.019823 -0.936461 0.567546 -0.388739 0.041958 -0.505764 0.578137 0.030415 0.936461 2.632642
457.000000 0.000000 105.000000 0.660000 16462.551000 30.000000 7.000000 0.180663 0.979100 0.093402 -0.982969 0.174026 0.067073 0.050378 -0.105035 0.993489 0.267215 -0.238492 -0.028723 0.580547 0.472603 0.466174 0.000000 0.000000 0.000000 1.000000 0.229984 0.106644 0.467498 1.000000 0.570872 0.384648 1.000000 0.147772 1.000000 0.229984 0.106644 1.000000 0.124447 0.223569 1.000000 0.041163 0.131535 0.267333 -0.238504 -0.028829 0.580636 0.472497 0.466337 -0.435260 0.835297 -0.400036 0.036272 -0.208814 -0.523387 0.271878 -0.242558 -0.029319 0.923327 0.751365 0.741569 -0.565118 1.236988 -0.671870 0.133088 -0.308029 -0.877932 0.139814 -0.473673 0.893708 0.280221 -0.048761 -0.802654 0.556728 -0.197165 -0.091053 -0.696542 0.522433 -0.083055 0.893708 2.470109
458.000000 0.000000 94.000000 0.790000 10802.777000 31.000000 7.000000 0.180707 0.979079 0.093536 -0.982900 0.173738 0.067204 0.050242 -0.104983 0.993188 0.127672 -0.270086 0.142414 0.438019 0.404734 0.613457 0.000000 0.000000 0.000000 1.000000 0.229170 0.106923 0.467459 1.000000 0.570736 0.385206 1.000000 0.148123 1.000000 0.229170 0.106923 1.000000 0.124228 0.223996 1.000000 0.041355 0.131284 0.127579 -0.269877 0.142298 0.437936 0.404919 0.613713 -0.508463 0.748370 -0.239907 0.116634 -0.002065 -0.579127 0.129748 -0.274465 0.144717 0.696406 0.643902 0.975926 -0.661805 1.121416 -0.459611 0.179179 0.009670 -0.960716 0.143585 -0.382159 0.712197 0.186453 -0.108002 -0.676615 0.688838 0.120225 -0.035582 -0.832422 0.490162 -0.306678 0.832422 2.392849
459.000000 0.000000 84.000000 1.030000 7078.665000 32.000000 7.000000 0.181630 0.978864 0.093994 -0.982174 0.173909 0.066735 0.050288 -0.104716 0.993086 -0.152701 0.164455 -0.011754 0.664801 0.013545 0.943846 0.000000 0.000000 0.000000 1.000000 0.230430 0.105744 0.469022 1.000000 0.575259 0.385715 1.000000 0.149576 1.000000 0.230430 0.105744 1.000000 0.125394 0.225248 1.000000 0.040683 0.131498 -0.152556 0.164395 -0.011840 0.664914 0.013652 0.943776 -0.245130 0.315593 -0.070463 0.003302 -0.010312 -1.129507 -0.155149 0.167190 -0.012041 1.057346 0.021709 1.500793 -0.477910 0.558482 -0.080572 -0.030121 -0.030392 -1.766830 -0.554391 -0.572117 0.308928 0.291202 -0.122613 -0.985932 1.102780 0.239460 0.677004 -0.548388 0.694730 -0.530662 1.102780 3.192295
460.000000 0.000000 100.000000 1.090000 18117.125000 33.000000 7.000000 -0.980347 0.176052 0.089026 -0.183014 -0.981539 -0.053187 0.079055 -0.069396 0.995077 0.165539 0.292228 -0.457767 -0.360169 0.565555 -0.940595 0.000000 0.000000 0.000000 1.000000 0.182910 0.169120 0.361514 1.000000 0.606400 0.279857 1.000000 0.101557 1.000000 0.182910 0.169120 1.000000 0.192405 0.147309 1.000000 0.056592 0.103663 0.165512 0.292582 -0.458094 -0.360372 0.565431 -0.940799 -0.248836 0.778425 -0.529590 -0.317210 0.069999 -0.957298 0.168326 0.297556 -0.465882 -0.573063 0.899149 -1.496058 -0.490781 1.220701 -0.729920 -0.301706 0.141948 -1.516234 0.548270 -0.185882 0.080366 -0.653786 0.117897 0.585801 -1.103630 -0.635725 -0.666167 0.555359 0.067985 1.289511 1.289511 3.259764
461.000000 0.000000 102.000000 3.890000 22191.585000 34.000000 7.000000 0.183034 0.981098 0.062805 -0.983696 0.177270 0.088697 0.079394 -0.072415 1.005014 4.709533 1.232402 -5.941934 0.875500 -3.232577 0.272228 0.000000 0.000000 0.000000 1.000000 0.190721 0.163080 0.399633 1.000000 0.621268 0.279885 1.000000 0.100499 1.000000 0.190721 0.163080 1.000000 0.174806 0.165454 1.000000 0.053029 0.109228 4.709038 1.231960 -5.940998 0.875391 -3.232436 0.272284 0.978511 -1.753015 0.774504 -5.870834 -1.694461 -1.063066 4.789091 1.252904 -6.041995 1.392047 -5.140220 0.432986 0.809228 -3.328617 2.519389 -6.471894 -2.220438 -1.787700 -1.223144 2.973828 -0.086543 4.110429 -4.030238 -5.166839 -3.676706 -4.813307 5.253382 4.899850 1.056410 0.702878 5.253382 13.310060
462.000000 0.000000 98.000000 0.610000 14481.686000 35.000000 7.000000 0.182078 0.981834 0.053374 -0.980658 0.176104 0.088819 0.078874 -0.069302 0.995444 0.420200 0.125031 -0.545231 0.568063 0.275509 0.455394 0.000000 0.000000 0.000000 1.000000 0.183322 0.168539 0.360988 1.000000 0.602251 0.279366 1.000000 0.100556 1.000000 0.183322 0.168539 1.000000 0.190382 0.147203 1.000000 0.056247 0.103503 0.420620 0.124651 -0.545271 0.567953 0.275492 0.455408 -0.111472 0.598199 -0.486726 -0.368580 -0.237987 -0.595549 0.427771 0.126770 -0.554540 0.903159 0.438087 0.724190 -0.251901 0.906703 -0.654802 -0.325868 -0.335915 -0.953498 -0.066982 -0.424678 0.670444 0.312748 -0.327963 -1.065389 0.263335 -0.474090 0.394944 -0.196354 0.752641 0.161343 1.065389 2.314316
463.000000 0.000000 85.000000 0.750000 10292.023000 36.000000 7.000000 0.181600 0.981973 0.052436 -0.980021 0.175440 0.089009 0.079134 -0.068488 0.994094 -0.280143 0.148294 0.131848 0.543084 0.379294 0.514450 0.000000 0.000000 0.000000 1.000000 0.181000 0.169475 0.356189 1.000000 0.599717 0.278699 1.000000 0.099475 1.000000 0.181000 0.169475 1.000000 0.191207 0.145365 1.000000 0.057735 0.101992 -0.279747 0.148359 0.131388 0.543282 0.379030 0.514450 -0.121428 0.505794 -0.384365 0.293897 -0.055318 -0.680921 -0.284502 0.150881 0.133621 0.863927 0.602734 0.818078 -0.270065 0.874449 -0.604383 0.357983 -0.113522 -1.047480 -0.284376 -0.776506 0.421017 -0.071113 0.189416 -0.515977 0.857374 0.151980 0.094960 -0.572998 0.587090 -0.080867 0.857374 2.349270
464.000000 0.000000 93.000000 0.960000 11248.891000 37.000000 7.000000 0.181934 0.981922 0.052237 -0.980510 0.175800 0.089290 0.079264 -0.068381 0.994839 0.157127 0.018096 -0.175223 0.455411 0.378551 0.551420 0.000000 0.000000 0.000000 1.000000 0.181336 0.170063 0.357025 1.000000 0.601139 0.277661 1.000000 0.099819 1.000000 0.181336 0.170063 1.000000 0.192016 0.145035 1.000000 0.058098 0.101709 0.157490 0.017688 -0.175178 0.455309 0.378545 0.551180 -0.234332 0.657020 -0.422689 -0.070238 -0.036281 -0.586027 0.160168 0.017988 -0.178156 0.724033 0.601962 0.876487 -0.384702 1.023172 -0.638471 -0.022194 -0.042074 -0.938160 0.008209 -0.483291 0.599379 0.107880 -0.200359 -0.791530 0.515289 -0.075881 0.192150 -0.523498 0.683650 -0.031999 0.791530 2.247444
465.000000 0.000000 76.000000 3.220000 6059.581000 38.000000 7.000000 -0.981880 0.178507 0.063616 -0.051124 0.085351 -0.994989 -0.187749 -0.980225 -0.074381 0.262622 0.298488 -0.561110 0.028301 -2.315551 -1.068569 0.000000 0.000000 0.000000 1.000000 0.237223 0.106446 0.403254 1.000000 0.570241 0.342062 1.000000 0.162130 1.000000 0.237223 0.106446 1.000000 0.173899 0.184625 1.000000 0.013110 0.124339 0.262460 0.298700 -0.561160 0.028169 -2.315373 -1.068318 -0.725199 0.674353 0.050846 0.155099 0.505078 -2.443106 0.266922 0.303777 -0.570699 0.044794 -3.681906 -1.698839 -1.287093 1.215744 0.071350 0.021145 0.751592 -3.814958 -1.536465 1.469798 -1.499891 1.506373 0.369878 0.333303 -1.017218 -1.053793 1.166588 2.553684 -1.839676 -0.452580 2.553684 7.075826
466.000000 0.000000 84.000000 2.260000 6036.323000 39.000000 7.000000 0.190405 0.978876 0.074485 -0.978223 0.181438 0.062860 0.050400 -0.084195 0.992929 -1.779701 1.330367 0.449333 1.088833 -0.567254 1.995409 0.000000 0.000000 0.000000 1.000000 0.245157 0.104908 0.401654 1.000000 0.579572 0.344534 1.000000 0.168684 1.000000 0.245157 0.104908 1.000000 0.180050 0.186187 1.000000 0.012082 0.123212 -1.781115 1.331654 0.449461 1.089778 -0.567345 1.996730 0.371963 -0.657468 0.285505 0.632358 0.447972 -2.672760 -1.811394 1.354293 0.457102 1.732964 -0.902192 3.175199 -0.108497 -0.505927 0.614424 0.426853 0.542492 -3.970136 -2.368184 -1.631548 -0.953225 -0.216588 0.337320 -1.077640 2.929859 1.514900 2.030865 -0.561675 1.294228 -1.298311 2.929859 7.048639
467.000000 0.000000 93.000000 0.580000 9549.149000 40.000000 7.000000 0.188191 0.979243 0.075280 -0.981252 0.182452 0.060867 0.047557 -0.086087 0.995514 0.094802 0.171054 -0.265856 0.888216 0.204832 0.707667 0.000000 0.000000 0.000000 1.000000 0.251003 0.100001 0.404405 1.000000 0.564114 0.346068 1.000000 0.170987 1.000000 0.251003 0.100001 1.000000 0.174904 0.185664 1.000000 0.020035 0.118250 0.095164 0.171053 -0.266217 0.888525 0.205111 0.708413 -0.171564 0.553857 -0.382293 -0.120321 -0.310798 -1.017717 0.096782 0.173961 -0.270743 1.412933 0.326168 1.126519 -0.368785 0.892977 -0.524192 -0.093616 -0.489133 -1.605044 -0.475178 -0.741493 0.678477 0.412162 -0.033114 -1.186768 0.886685 -0.266969 0.508291 -0.411508 0.774606 -0.145193 1.186768 3.206996
468.000000 0.000000 100.000000 0.610000 11943.313000 41.000000 7.000000 0.188655 0.979176 0.074984 -0.980510 0.183173 0.060201 0.047018 -0.085449 0.994371 -0.523509 0.189915 0.333594 0.947271 0.120290 0.553522 0.000000 0.000000 0.000000 1.000000 0.253439 0.098778 0.400945 1.000000 0.563415 0.347099 1.000000 0.173092 1.000000 0.253439 0.098778 1.000000 0.176721 0.185216 1.000000 0.020013 0.117092 -0.523395 0.189810 0.333586 0.948020 0.120010 0.553714 -0.124199 0.248014 -0.123816 0.445528 -0.362791 -1.026704 -0.532293 0.193036 0.339257 1.507541 0.190840 0.880516 -0.292098 0.519162 -0.227065 0.483100 -0.623932 -1.573649 -0.833655 -0.989476 0.397247 0.241426 0.611791 -0.619111 1.330729 0.099827 0.221865 -0.497073 0.377685 -0.341253 1.330729 3.147501
469.000000 0.000000 102.000000 0.750000 12700.244000 42.000000 7.000000 0.189152 0.979154 0.074021 -0.978848 0.183015 0.060197 0.047103 -0.084018 0.991910 -1.936223 0.440494 1.495728 0.894236 -0.031485 0.750470 0.000000 0.000000 0.000000 1.000000 0.252488 0.099419 0.394156 1.000000 0.563547 0.347537 1.000000 0.174020 1.000000 0.252488 0.099419 1.000000 0.179624 0.183907 1.000000 0.017853 0.116821 -1.937731 0.440472 1.497258 0.894839 -0.031501 0.751176 -0.001112 -0.351005 0.352116 1.549191 -0.015158 -1.391933 -1.970672 0.447960 1.522712 1.422973 -0.050093 1.194520 -0.207584 -0.143219 0.350802 1.555917 -0.194042 -2.025787 -1.588780 -1.547878 -0.426927 -0.386026 1.519433 0.357581 2.494755 1.332903 0.069346 -0.905976 0.028445 -0.946877 2.494755 4.468448
470.000000 0.000000 111.000000 0.560000 17961.341000 43.000000 7.000000 0.188800 0.979140 0.075092 -0.980187 0.184135 0.059592 0.046222 -0.085294 0.993634 -0.844262 0.045760 0.798502 0.902684 0.087753 0.145578 0.000000 0.000000 0.000000 1.000000 0.256517 0.097457 0.399045 1.000000 0.561398 0.348767 1.000000 0.175141 1.000000 0.256517 0.097457 1.000000 0.177134 0.185438 1.000000 0.021122 0.115597 -0.844789 0.045930 0.798859 0.903353 0.087594 0.145656 -0.118513 0.036034 0.082479 0.861452 -0.511868 -0.711849 -0.859151 0.046711 0.812440 1.436511 0.139292 0.231622 -0.197566 0.214154 -0.016588 0.934219 -0.885335 -1.066601 -0.899404 -1.013136 0.273502 0.159771 1.174318 0.001411 1.363437 0.190530 -0.274914 -0.464032 -0.161182 -0.350301 1.363437 2.917262
471.000000 0.000000 115.000000 0.430000 21434.748000 44.000000 7.000000 0.189008 0.979062 0.075589 -0.980999 0.183913 0.059560 0.045886 -0.086046 0.994627 -0.246605 -0.110800 0.357405 0.800166 0.194876 0.426545 0.000000 0.000000 0.000000 1.000000 0.256402 0.097093 0.402580 1.000000 0.562225 0.349351 1.000000 0.176067 1.000000 0.256402 0.097093 1.000000 0.176548 0.186330 1.000000 0.022743 0.115292 -0.246577 -0.110860 0.357437 0.800632 0.195262 0.426602 -0.340955 0.423954 -0.082999 0.362219 -0.354502 -0.743802 -0.250769 -0.112745 0.363513 1.273166 0.310505 0.678382 -0.476452 0.699007 -0.222555 0.414557 -0.582170 -1.178169 -0.449353 -0.702879 0.590183 0.336656 0.493599 -0.545936 1.047496 0.007960 -0.044247 -0.598143 0.209280 -0.344616 1.047496 2.616162
472.000000 0.000000 112.000000 0.590000 22715.962000 45.000000 7.000000 0.188754 0.979209 0.074314 -0.979433 0.184512 0.058742 0.045740 -0.084336 0.991773 -1.739887 -0.127571 1.867458 1.059311 0.123866 -0.084603 0.000000 0.000000 0.000000 1.000000 0.258202 0.096114 0.392663 1.000000 0.557857 0.349499 1.000000 0.176307 1.000000 0.258202 0.096114 1.000000 0.178828 0.183829 1.000000 0.020687 0.114325 -1.741685 -0.127303 1.868987 1.060079 0.123884 -0.084646 -0.242667 -0.185960 0.428627 1.840999 -0.634038 -0.698426 -1.771294 -0.129467 1.900760 1.685738 0.197000 -0.134603 -0.282300 -0.011748 0.294048 1.967518 -1.151208 -1.001325 -1.278048 -1.438897 0.098352 -0.062498 2.242261 0.865862 2.132358 0.755958 -0.964213 -0.854310 -0.803364 -0.693460 2.242261 4.341269
473.000000 0.000000 118.000000 0.390000 25385.879000 46.000000 7.000000 -0.189314 -0.978968 -0.076042 0.981081 -0.184158 -0.059418 0.045688 -0.086534 0.995088 -0.043320 -0.024992 0.068312 -0.816638 -0.198780 0.465139 0.000000 0.000000 0.000000 1.000000 0.257429 0.096543 0.404923 1.000000 0.563737 0.350196 1.000000 0.176956 1.000000 0.257429 0.096543 1.000000 0.176420 0.187264 1.000000 0.023663 0.115195 -0.043576 -0.024789 0.068365 -0.816908 -0.198883 0.464999 -0.266980 0.478889 -0.211909 0.129702 -0.373149 -0.773233 -0.044317 -0.025211 0.069528 -1.299047 -0.316263 0.739442 -0.410072 0.765060 -0.354988 0.176295 -0.596535 -1.229372 0.393420 0.651648 -0.667248 -0.409020 -0.785733 0.274935 -0.181981 0.878686 0.392313 -0.211439 0.134085 -0.469667 0.878686 2.648416
474.000000 0.000000 118.000000 0.370000 26980.782000 47.000000 7.000000 0.189465 0.978947 0.075926 -0.980714 0.184233 0.059436 0.045531 -0.086348 0.994636 -0.316189 0.047364 0.268825 0.723250 0.193027 0.472749 0.000000 0.000000 0.000000 1.000000 0.257492 0.096670 0.403861 1.000000 0.563675 0.350651 1.000000 0.177621 1.000000 0.257492 0.096670 1.000000 0.176996 0.187194 1.000000 0.023648 0.114880 -0.315861 0.047154 0.268707 0.723036 0.193334 0.472571 -0.201427 0.351031 -0.149604 0.333722 -0.252147 -0.776236 -0.321231 0.047955 0.273275 1.149771 0.307440 0.751482 -0.340203 0.622284 -0.282081 0.376192 -0.428093 -1.206336 -0.494600 -0.745624 0.444185 0.193161 0.405307 -0.533477 1.018890 0.080105 0.089293 -0.524290 0.340317 -0.273266 1.018890 2.492771
475.000000 0.000000 116.000000 0.400000 27731.143000 48.000000 7.000000 0.189630 0.978945 0.075545 -0.980577 0.185050 0.059182 0.045530 -0.086005 0.994194 -0.472669 -0.110021 0.582690 0.863109 0.227995 0.161798 0.000000 0.000000 0.000000 1.000000 0.259539 0.096288 0.401655 1.000000 0.563354 0.350558 1.000000 0.177937 1.000000 0.259539 0.096288 1.000000 0.178076 0.186431 1.000000 0.023124 0.114728 -0.472844 -0.109999 0.582843 0.863386 0.227721 0.161579 -0.254846 0.321191 -0.066345 0.630625 -0.512678 -0.603582 -0.480883 -0.111869 0.592752 1.372957 0.362122 0.256943 -0.335574 0.575772 -0.240197 0.721613 -0.852549 -0.938747 -0.563321 -0.858992 0.557694 0.262023 0.893920 -0.227094 1.103713 -0.017301 -0.330599 -0.540393 -0.034928 -0.244721 1.103713 2.671921
476.000000 0.000000 115.000000 0.340000 28624.056000 49.000000 7.000000 0.189810 0.978916 0.075464 -0.980507 0.185032 0.059400 0.045504 -0.086016 0.994352 -0.439953 -0.018637 0.458590 0.736021 0.264836 0.248723 0.000000 0.000000 0.000000 1.000000 0.259157 0.096777 0.402009 1.000000 0.564101 0.350446 1.000000 0.178327 1.000000 0.259157 0.096777 1.000000 0.178544 0.186388 1.000000 0.023156 0.114720 -0.439664 -0.018577 0.458242 0.735727 0.264613 0.248941 -0.186322 0.336888 -0.150565 0.540166 -0.359134 -0.607377 -0.447139 -0.018893 0.466032 1.169953 0.420788 0.395866 -0.277555 0.610396 -0.332841 0.620636 -0.607372 -0.936487 -0.480676 -0.824247 0.474586 0.131015 0.688820 -0.266443 1.012043 0.056781 -0.208144 -0.531367 0.135428 -0.187796 1.012043 2.394556
477.000000 0.000000 114.000000 0.310000 28094.122000 50.000000 7.000000 0.190074 0.978852 0.075631 -0.980925 0.185265 0.059511 0.045600 -0.086476 0.994994 -0.058436 -0.097043 0.155479 0.768923 0.364475 0.300420 0.000000 0.000000 0.000000 1.000000 0.259675 0.096873 0.404122 1.000000 0.565829 0.350500 1.000000 0.178445 1.000000 0.259675 0.096873 1.000000 0.178635 0.186734 1.000000 0.023553 0.115102 -0.058416 -0.097238 0.155654 0.769335 0.364339 0.300760 -0.269663 0.591332 -0.321670 0.253425 -0.403289 -0.586366 -0.059409 -0.098891 0.158300 1.223396 0.579372 0.478268 -0.374182 0.934200 -0.560018 0.345148 -0.644312 -0.939600 -0.246803 -0.719859 0.752095 0.279040 0.393076 -0.605822 0.783581 -0.215318 -0.146273 -0.536778 0.326782 -0.063722 0.783581 2.498176
478.000000 0.000000 113.000000 0.290000 28060.901000 51.000000 7.000000 0.190343 0.978817 0.075409 -0.980718 0.185310 0.059701 0.045720 -0.086260 0.994854 -0.170512 -0.025951 0.196462 0.715639 0.355512 0.393657 0.000000 0.000000 0.000000 1.000000 0.259394 0.097386 0.403564 1.000000 0.566928 0.350231 1.000000 0.178678 1.000000 0.259394 0.097386 1.000000 0.179519 0.186472 1.000000 0.023010 0.115277 -0.170378 -0.025939 0.196316 0.715373 0.355488 0.393739 -0.235123 0.543466 -0.308343 0.298901 -0.291334 -0.655901 -0.173274 -0.026380 0.199654 1.137586 0.565296 0.626124 -0.356315 0.890005 -0.533690 0.377791 -0.477006 -1.033817 -0.293606 -0.755168 0.635229 0.173667 0.361051 -0.567785 0.872279 -0.056556 -0.067445 -0.578673 0.394118 -0.117111 0.872279 2.474460
479.000000 0.000000 109.000000 2.800000 23208.509000 52.000000 7.000000 0.189814 0.978794 0.077028 -0.979882 0.185727 0.059504 0.045738 -0.085964 0.994888 -0.418810 0.480412 -0.061602 0.793089 -0.587910 -0.189384 0.000000 0.000000 0.000000 1.000000 0.261112 0.096265 0.406204 1.000000 0.567004 0.350875 1.000000 0.177864 1.000000 0.261112 0.096265 1.000000 0.175908 0.189701 1.000000 0.022561 0.115176 -0.419185 0.480713 -0.061528 0.793212 -0.588171 -0.189585 0.436329 -0.700468 0.264139 0.080056 -0.740912 -0.534419 -0.426312 0.488885 -0.062574 1.261366 -0.935309 -0.301478 0.437603 -0.958129 0.520526 0.037907 -1.222578 -0.763352 -1.270416 -0.506740 -0.240515 0.523161 0.786524 -0.243378 0.540368 -0.489533 0.483893 0.730048 -0.279784 -0.033628 1.270416 2.882223
480.000000 0.000000 109.000000 1.140000 17766.419000 53.000000 7.000000 0.190663 0.978546 0.078071 -0.978223 0.184592 0.063959 0.047924 -0.088508 0.993025 -1.452157 1.013669 0.438488 -0.148251 -0.027644 0.445021 0.000000 0.000000 0.000000 1.000000 0.252141 0.105668 0.413708 1.000000 0.579786 0.356628 1.000000 0.173811 1.000000 0.252141 0.105668 1.000000 0.173939 0.194454 1.000000 0.021588 0.120755 -1.452106 1.013905 0.438201 -0.148251 -0.027555 0.445109 0.771526 -0.678134 -0.093392 0.756843 0.602436 -0.646155 -1.476792 1.031141 0.445650 -0.235749 -0.043817 0.707812 0.697386 -0.647248 -0.050138 0.714327 0.818247 -0.803862 -0.945503 -0.909727 -1.137992 -1.102215 0.399626 0.592115 0.977552 1.170041 0.545877 -0.032049 0.510100 -0.067826 1.170041 2.615271
481.000000 0.000000 106.000000 3.150000 18690.240000 54.000000 7.000000 0.186069 0.979016 0.083100 -0.980286 0.179983 0.067387 0.041764 -0.092557 1.002654 2.206463 3.308958 -5.515421 -4.911245 -0.237358 0.300230 0.000000 0.000000 0.000000 1.000000 0.239074 0.110095 0.440430 1.000000 0.559476 0.357929 1.000000 0.180441 1.000000 0.239074 0.110095 1.000000 0.156982 0.202855 1.000000 0.039017 0.110604 2.206886 3.309358 -5.516244 -4.911986 -0.237655 0.300370 3.542945 -1.376133 -2.166812 -4.258065 3.922525 2.076517 2.244403 3.365617 -5.610020 -7.811040 -0.377918 0.477649 3.767492 -2.038765 -1.728726 -4.694085 6.343412 3.515537 2.576826 2.885395 -3.800862 -3.492293 -6.590398 -0.212711 -6.200399 0.177288 4.013572 3.623574 3.705003 3.315005 6.590398 15.997047
482.000000 0.000000 103.000000 1.700000 21952.391000 55.000000 7.000000 0.185985 0.979273 0.080217 -0.981921 0.182160 0.050517 0.035983 -0.089380 0.995210 -0.061539 -0.012700 0.074239 0.669597 0.501494 0.093835 0.000000 0.000000 0.000000 1.000000 0.268194 0.075853 0.406938 1.000000 0.530221 0.364052 1.000000 0.193558 1.000000 0.268194 0.075853 1.000000 0.166912 0.191637 1.000000 0.045399 0.098251 -0.061963 -0.012727 0.074690 0.669666 0.501443 0.093623 -0.089103 0.601995 -0.512892 0.281064 -0.416282 -0.380090 -0.063017 -0.012943 0.075960 1.064904 0.797395 0.148879 -0.133488 0.966401 -0.832913 0.410631 -0.666425 -0.601241 -0.129652 -0.780723 0.739838 0.088767 0.430702 -0.438788 0.552262 -0.317228 -0.301050 -0.422610 0.350021 0.228461 0.780723 2.321839
483.000000 0.000000 109.000000 0.590000 24585.651000 56.000000 7.000000 0.186368 0.979180 0.080459 -0.982132 0.182031 0.050478 0.035961 -0.089442 0.995475 0.088253 -0.044487 -0.043766 0.674331 0.391642 0.368113 0.000000 0.000000 0.000000 1.000000 0.268094 0.075660 0.408300 1.000000 0.531842 0.364159 1.000000 0.194209 1.000000 0.268094 0.075660 1.000000 0.167182 0.192206 1.000000 0.045500 0.098283 0.088366 -0.044487 -0.043879 0.674772 0.391851 0.368157 -0.216569 0.635587 -0.419018 0.077553 -0.307717 -0.579941 0.089868 -0.045243 -0.044625 1.073022 0.623122 0.585444 -0.321514 0.987069 -0.665555 0.157818 -0.481322 -0.933574 -0.128512 -0.637289 0.747607 0.238830 0.144147 -0.731972 0.622159 -0.253959 -0.015634 -0.493647 0.493142 0.015130 0.747607 2.380205
484.000000 0.000000 107.000000 0.650000 20396.076000 57.000000 7.000000 0.186466 0.979160 0.080469 -0.982002 0.182372 0.050405 0.035756 -0.089303 0.995477 0.059205 -0.004175 -0.055030 0.610383 0.335343 0.241492 0.000000 0.000000 0.000000 1.000000 0.268974 0.075473 0.408012 1.000000 0.531654 0.364248 1.000000 0.194905 1.000000 0.268974 0.075473 1.000000 0.167454 0.192247 1.000000 0.045645 0.097863 0.059611 -0.004480 -0.055131 0.610728 0.335023 0.241667 -0.129030 0.514999 -0.385970 0.079591 -0.326192 -0.467738 0.060624 -0.004556 -0.056068 0.971179 0.532754 0.384299 -0.203849 0.807354 -0.603505 0.156885 -0.513984 -0.748687 -0.152377 -0.587368 0.640588 0.205596 0.191953 -0.601011 0.505732 -0.287232 -0.039577 -0.353356 0.395415 0.081636 0.640588 2.033313
485.000000 0.000000 84.000000 1.640000 7276.291000 58.000000 7.000000 0.186362 0.979277 0.079287 -0.980326 0.182631 0.050728 0.035844 -0.088013 0.993254 -1.244811 0.274828 0.969984 0.416036 0.380092 -0.086189 0.000000 0.000000 0.000000 1.000000 0.268430 0.076799 0.400733 1.000000 0.529597 0.364278 1.000000 0.194901 1.000000 0.268430 0.076799 1.000000 0.169509 0.190354 1.000000 0.043668 0.097567 -1.245223 0.275373 0.969851 0.415924 0.380116 -0.086395 0.230751 -0.066887 -0.163863 1.198420 -0.150704 -0.327486 -1.266392 0.280054 0.986338 0.661403 0.604460 -0.137386 0.238918 0.165390 -0.404308 1.322202 -0.343740 -0.398618 -0.654581 -1.148120 -0.114548 -0.608087 1.245777 0.705744 1.133602 0.593569 -0.591196 -0.479022 -0.097657 0.014518 1.245777 2.539225
486.000000 0.000000 79.000000 0.800000 8754.043000 59.000000 7.000000 0.023916 -0.054065 0.998251 -0.985115 0.170774 0.031618 -0.173372 -0.984490 -0.047946 0.365634 0.057706 -0.423340 -0.574354 -0.609058 0.615460 0.000000 0.000000 0.000000 1.000000 0.259556 0.048861 0.288804 1.000000 0.416782 0.283843 1.000000 0.204973 1.000000 0.259556 0.048861 1.000000 0.207560 0.112411 1.000000 0.024195 0.060000 0.365776 0.057599 -0.423375 -0.573970 -0.608720 0.615425 -0.175416 0.696799 -0.521383 0.488009 -0.025936 -0.777183 0.371994 0.058578 -0.430572 -0.912728 -0.967987 0.978649 -0.303781 1.180761 -0.876980 0.562391 -0.072923 -1.200849 0.105392 0.895750 -0.639847 0.150511 -1.099798 -0.354559 -0.300734 0.444505 0.994405 0.195342 0.204048 -0.595016 1.099798 2.945212
487.000000 0.000000 80.000000 0.670000 9083.075000 60.000000 7.000000 0.172534 0.983851 0.047644 -0.984166 0.170487 0.031898 0.024030 -0.053675 0.997486 -0.482855 0.184310 0.298545 0.491887 0.569611 0.275044 0.000000 0.000000 0.000000 1.000000 0.258600 0.049606 0.287787 1.000000 0.414857 0.282796 1.000000 0.203562 1.000000 0.258600 0.049606 1.000000 0.206620 0.111826 1.000000 0.023585 0.060054 -0.483267 0.184439 0.298828 0.492393 0.570155 0.275199 0.052901 0.507126 -0.560028 0.512512 -0.090516 -0.513838 -0.491483 0.187574 0.303908 0.783003 0.906661 0.437621 -0.010309 0.912953 -0.902644 0.604733 -0.184375 -0.766366 -0.226741 -0.967026 0.412579 -0.327707 0.465719 -0.173601 0.823035 0.183715 -0.238978 -0.596294 0.501308 0.143992 0.967026 2.331002
488.000000 0.000000 112.000000 0.550000 24769.204000 0.000000 8.000000 -0.194538 0.832712 -0.518407 -0.690201 0.257533 0.674211 0.697059 0.488903 0.525064 -0.355828 1.016717 -0.660889 0.599448 0.342972 0.399199 0.000000 0.000000 0.000000 0.006059 1.000000 0.479761 0.149357 0.875708 1.000000 1.000000 0.641811 0.261517 0.006059 1.000000 0.479761 0.764854 0.723682 1.000000 0.168552 0.012133 1.000000 -0.355777 1.016703 -0.660926 0.599576 0.343230 0.398784 -0.412714 0.881760 -0.469045 0.058682 -0.240773 -0.888558 -0.361826 1.033987 -0.672161 0.953445 0.545804 0.634146 -0.742321 1.380125 -0.637804 -0.070617 -0.181255 -0.982799 -0.736257 -1.181904 0.042228 -0.403419 0.003660 -0.774825 0.521437 -0.257048 0.732598 0.214820 1.178244 0.660467 1.181904 2.702790
489.000000 0.000000 118.000000 0.360000 33147.992000 1.000000 8.000000 -0.195146 0.833188 -0.517412 -0.697585 -0.488340 -0.524991 -0.689604 0.257154 0.674970 -0.337254 -0.694864 1.032118 -0.564024 0.203972 -0.443936 0.000000 0.000000 0.000000 0.007624 1.000000 0.481049 0.147861 0.870789 1.000000 1.000000 0.646176 0.262454 0.007624 1.000000 0.481049 0.769143 0.726628 1.000000 0.170169 0.013034 1.000000 -0.336905 -0.695033 1.031938 -0.564164 0.204303 -0.444181 -0.466236 0.808346 -0.342111 0.074297 -0.429686 -0.839037 -0.342632 -0.706849 1.049481 -0.897134 0.324882 -0.706336 -0.822846 1.269496 -0.446650 -0.043491 -0.479761 -0.890151 0.647577 0.382311 -0.084930 -0.350195 0.490435 1.222941 -0.086286 0.646220 -1.138011 -0.561290 -0.872746 -0.296025 1.222941 2.608752
490.000000 0.000000 115.000000 0.390000 28353.455000 2.000000 8.000000 -0.194980 0.833095 -0.517625 -0.697495 -0.488185 -0.525404 -0.689905 0.257083 0.674926 -0.257381 -0.694007 0.951389 -0.547375 0.334585 -0.627320 0.000000 0.000000 0.000000 0.007045 1.000000 0.480069 0.148425 0.868984 1.000000 1.000000 0.644849 0.262451 0.007045 1.000000 0.480069 0.769199 0.726555 1.000000 0.169626 0.013471 1.000000 -0.257238 -0.693921 0.951159 -0.547285 0.334659 -0.627487 -0.499137 0.899345 -0.400208 -0.150783 -0.446049 -0.837078 -0.261611 -0.705718 0.967329 -0.870292 0.532175 -0.997829 -0.855353 1.428251 -0.572898 -0.377971 -0.525280 -0.904838 0.753861 0.319341 0.043270 -0.391249 0.553779 1.264370 -0.260945 0.449646 -1.307640 -0.492916 -0.873121 -0.058397 1.307640 2.891738
491.000000 0.000000 116.000000 0.380000 28346.975000 3.000000 8.000000 -0.195023 0.833151 -0.517519 -0.697645 -0.488153 -0.525227 -0.689731 0.257076 0.674882 -0.309334 -0.741966 1.051300 -0.616191 0.285634 -0.583021 0.000000 0.000000 0.000000 0.007271 1.000000 0.480271 0.147870 0.869665 1.000000 1.000000 0.645459 0.262584 0.007271 1.000000 0.480271 0.769152 0.726011 1.000000 0.169980 0.013405 1.000000 -0.309545 -0.741762 1.051307 -0.615765 0.285353 -0.583152 -0.543854 0.933353 -0.389498 -0.043630 -0.469059 -0.891662 -0.314807 -0.754372 1.069179 -0.979190 0.453769 -0.927329 -0.939321 1.476083 -0.536761 -0.227217 -0.540785 -0.954785 0.764455 0.393954 -0.035050 -0.405551 0.543838 1.343343 -0.213323 0.586182 -1.308292 -0.551132 -0.937792 -0.180631 1.343343 2.964955
492.000000 0.000000 114.000000 0.380000 26488.860000 4.000000 8.000000 -0.194901 0.833197 -0.517490 -0.697584 -0.488321 -0.525144 -0.689731 0.257119 0.674820 -0.320941 -0.749547 1.070488 -0.606798 0.277738 -0.424491 0.000000 0.000000 0.000000 0.007224 1.000000 0.480525 0.147878 0.870703 1.000000 1.000000 0.644978 0.262901 0.007224 1.000000 0.480525 0.769006 0.725480 1.000000 0.169825 0.013282 1.000000 -0.321121 -0.749383 1.070504 -0.606942 0.277566 -0.424470 -0.489340 0.855673 -0.366333 0.065253 -0.376514 -0.912138 -0.326580 -0.762123 1.088703 -0.965159 0.441385 -0.674992 -0.855551 1.351017 -0.495466 -0.058140 -0.389532 -0.980755 0.752028 0.391639 -0.036020 -0.396410 0.459327 1.247376 -0.091802 0.696247 -1.211356 -0.660227 -0.850966 -0.299837 1.247376 2.748643
493.000000 0.000000 111.000000 0.660000 17243.754000 5.000000 8.000000 -0.194761 0.833177 -0.517575 -0.697032 -0.488180 -0.525901 -0.690285 0.256788 0.674751 -0.255360 -0.628807 0.884167 -0.470798 0.423280 -0.603795 0.000000 0.000000 0.000000 0.006061 1.000000 0.479442 0.149799 0.866755 1.000000 1.000000 0.643349 0.263545 0.006061 1.000000 0.479442 0.770247 0.728023 1.000000 0.168640 0.014471 1.000000 -0.255430 -0.628637 0.884067 -0.470768 0.423430 -0.603704 -0.394675 0.860497 -0.465823 -0.213044 -0.372642 -0.803442 -0.259772 -0.639324 0.899096 -0.748616 0.673338 -0.960010 -0.689472 1.363137 -0.673665 -0.470369 -0.420277 -0.886665 0.735461 0.185683 0.124219 -0.425559 0.559407 1.170649 -0.224437 0.386805 -1.294869 -0.511024 -0.745090 0.038754 1.294869 2.780858
494.000000 0.000000 112.000000 1.400000 13145.783000 6.000000 8.000000 -0.194201 0.833246 -0.517675 -0.696473 -0.487685 -0.527926 -0.691071 0.256609 0.673647 -0.192193 -1.002061 1.194254 -0.266371 0.354340 -1.092458 0.000000 0.000000 0.000000 0.002548 1.000000 0.473556 0.151784 0.861168 1.000000 1.000000 0.639824 0.265487 0.002548 1.000000 0.473556 0.772950 0.729561 1.000000 0.166847 0.016231 1.000000 -0.192228 -1.002161 1.194389 -0.266607 0.354118 -1.092556 -0.375561 0.803404 -0.427843 -0.527704 -0.863239 -1.056242 -0.195496 -1.019197 1.214693 -0.423958 0.563118 -1.737383 -0.643075 1.307646 -0.664571 -0.985208 -1.149939 -1.102729 0.739247 0.279463 0.393086 -0.066697 1.111911 1.458071 -0.306656 0.039504 -1.851158 -0.432590 -1.391374 0.027193 1.851158 3.791401
495.000000 0.000000 117.000000 0.730000 21115.565000 7.000000 8.000000 -0.193941 0.833281 -0.517716 -0.695100 -0.488266 -0.528353 -0.692498 0.256232 0.672742 -0.247539 -0.610489 0.858028 -0.400862 0.237444 -0.740585 0.000000 0.000000 0.000000 0.000267 1.000000 0.473031 0.156645 0.861765 1.000000 1.000000 0.636255 0.267548 0.000267 1.000000 0.473031 0.772769 0.734653 1.000000 0.163909 0.017590 1.000000 -0.247590 -0.610481 0.858071 -0.401107 0.237260 -0.740858 -0.412475 0.782248 -0.369774 -0.241563 -0.574831 -0.709235 -0.251799 -0.620859 0.872658 -0.637841 0.377291 -1.178113 -0.718326 1.240790 -0.522464 -0.510628 -0.746700 -0.748182 0.565094 0.257037 0.044299 -0.263758 0.679623 1.200418 -0.282302 0.238493 -1.244717 -0.282792 -0.936660 0.025265 1.244717 2.761706
496.000000 0.000000 115.000000 0.550000 19722.103000 8.000000 8.000000 -0.193906 0.833275 -0.517739 -0.694908 -0.488382 -0.528125 -0.692548 0.256255 0.672514 -0.351258 -0.516127 0.867385 -0.468726 0.184319 -0.610542 0.000000 0.000000 0.000000 0.000190 1.000000 0.473190 0.157069 0.863462 1.000000 1.000000 0.635988 0.267743 0.000190 1.000000 0.473190 0.771949 0.734696 1.000000 0.163662 0.017541 1.000000 -0.351412 -0.516590 0.868002 -0.468744 0.184334 -0.610585 -0.410390 0.807194 -0.396804 -0.074771 -0.521632 -0.657265 -0.357386 -0.525372 0.882758 -0.745397 0.293128 -0.970953 -0.741611 1.256454 -0.514842 -0.267105 -0.653462 -0.693232 0.492556 0.253218 -0.116058 -0.355396 0.598369 1.206983 -0.194410 0.414204 -1.090925 -0.298146 -0.851587 -0.058807 1.206983 2.554873
497.000000 0.000000 101.000000 0.660000 10033.784000 9.000000 8.000000 -0.193896 0.833167 -0.517916 -0.694618 -0.488119 -0.528796 -0.692916 0.256091 0.672461 -0.283129 -0.474240 0.757369 -0.357840 0.280512 -0.935275 0.000000 0.000000 0.000000 0.000670 1.000000 0.471786 0.158257 0.860050 1.000000 1.000000 0.635152 0.267637 0.000670 1.000000 0.471786 0.772700 0.736553 1.000000 0.163008 0.018270 1.000000 -0.282919 -0.474336 0.757255 -0.357854 0.280302 -0.935304 -0.394661 0.871052 -0.476392 -0.402939 -0.660137 -0.593127 -0.287729 -0.482400 0.770129 -0.569060 0.445736 -1.487321 -0.699442 1.367320 -0.667878 -0.765189 -0.897663 -0.628645 0.493763 0.129821 0.029127 -0.334814 0.806747 1.271382 -0.407646 0.056990 -1.300510 -0.086117 -0.936568 0.277824 1.300510 3.093023
498.000000 0.000000 81.000000 1.550000 4868.792000 10.000000 8.000000 -0.194308 0.832933 -0.518138 -0.695442 -0.486726 -0.531065 -0.692809 0.255891 0.672634 0.085702 -1.210113 1.124411 -0.023790 0.380395 -2.436235 0.000000 0.000000 0.000000 0.002379 1.000000 0.467797 0.156856 0.848267 1.000000 1.000000 0.637041 0.265996 0.002379 1.000000 0.467797 0.776931 0.738320 1.000000 0.164172 0.019298 1.000000 0.085562 -1.210055 1.124493 -0.023668 0.380337 -2.436130 -0.609302 1.080330 -0.471028 -1.579802 -1.733054 -1.033729 0.087016 -1.230626 1.143610 -0.037637 0.604811 -3.873933 -0.946177 1.811141 -0.864964 -2.594026 -2.562465 -1.016110 0.800204 0.306377 0.769473 0.275647 1.997514 2.028245 -1.165540 -1.134809 -2.797718 0.365336 -2.303891 0.859162 2.797718 7.097077
499.000000 0.000000 123.000000 0.340000 35560.896000 11.000000 8.000000 0.948022 0.229240 0.220690 0.243058 -0.080189 -0.966522 -0.204088 0.968612 -0.133166 -0.455974 -0.291831 0.747805 -0.717449 0.412365 0.629778 0.000000 0.000000 0.000000 1.000000 0.081364 0.502596 0.044122 0.880690 1.000000 0.039550 1.000000 0.037124 1.000000 0.081364 0.502596 1.000000 0.283527 0.189990 1.000000 0.165545 0.305876 -0.456156 -0.291961 0.748117 -0.717153 0.411942 0.629585 -0.193853 0.683921 -0.490068 -0.763853 -0.515769 -0.533521 -0.463911 -0.296924 0.760835 -1.140416 0.655070 1.001166 -0.081193 1.006901 -0.925707 -0.929825 -0.906749 -0.740045 0.664832 0.129970 -0.266314 -0.801176 -0.374297 0.556849 0.443152 1.374298 -0.290536 -1.107984 0.244327 -0.573121 1.374298 3.085347
500.000000 0.000000 123.000000 0.300000 36698.319000 12.000000 8.000000 -0.204596 0.969724 -0.133327 -0.949019 -0.229845 -0.220691 -0.243488 0.080295 0.967553 0.677737 -0.407719 -0.270019 0.454978 0.659383 -0.350862 0.000000 0.000000 0.000000 1.000000 0.080292 0.503319 0.044526 0.878584 1.000000 0.039468 1.000000 0.036969 1.000000 0.080292 0.503319 1.000000 0.284245 0.190077 1.000000 0.165558 0.306194 0.676622 -0.407344 -0.269278 0.454099 0.658574 -0.350314 -0.214717 0.668379 -0.453662 -0.660438 -0.375827 -0.428986 0.688125 -0.414269 -0.273856 0.722109 1.047265 -0.557069 -0.138557 0.990213 -0.851655 -0.791116 -0.676326 -0.585488 0.582795 -0.272293 1.172394 0.317306 0.129495 -0.460104 -0.325349 -0.914949 -0.712290 -0.257445 0.142798 0.597643 1.172394 2.620265
501.000000 0.000000 124.000000 0.310000 31976.852000 13.000000 8.000000 -0.204598 0.969688 -0.133585 -0.948743 -0.229860 -0.220465 -0.243246 0.080595 0.966800 0.320554 -0.457054 0.136500 0.446818 0.615237 -0.333999 0.000000 0.000000 0.000000 1.000000 0.080435 0.503196 0.046336 0.877633 1.000000 0.039326 1.000000 0.036697 1.000000 0.080435 0.503196 1.000000 0.283900 0.190919 1.000000 0.164581 0.306679 0.320186 -0.456293 0.136107 0.446084 0.614641 -0.333560 -0.251260 0.654799 -0.403539 -0.293133 -0.482103 -0.454909 0.325629 -0.464050 0.138421 0.709363 0.977402 -0.530426 -0.176661 0.951669 -0.775008 -0.413612 -0.775659 -0.607165 0.431812 -0.366234 1.011004 0.212959 0.429715 -0.149478 -0.003377 -0.582569 -0.861526 -0.428435 -0.063481 0.369611 1.011004 2.393825
502.000000 0.000000 123.000000 0.380000 28456.471000 14.000000 8.000000 -0.204638 0.969694 -0.133478 -0.948877 -0.229915 -0.220434 -0.243246 0.080513 0.966986 0.422734 -0.487555 0.064820 0.428442 0.610947 -0.325659 0.000000 0.000000 0.000000 1.000000 0.080084 0.503331 0.045913 0.878051 1.000000 0.039289 1.000000 0.036648 1.000000 0.080084 0.503331 1.000000 0.284066 0.190654 1.000000 0.164680 0.306497 0.422275 -0.487113 0.064838 0.427907 0.609791 -0.324978 -0.284521 0.662642 -0.378121 -0.369146 -0.438155 -0.459021 0.429453 -0.495393 0.065940 0.680458 0.969690 -0.516781 -0.213699 0.959624 -0.745925 -0.487254 -0.720951 -0.607304 0.495646 -0.296103 1.051237 0.259488 0.340367 -0.215225 -0.081583 -0.637174 -0.836013 -0.414063 -0.044264 0.377686 1.051237 2.379589
503.000000 0.000000 122.000000 0.360000 25428.160000 15.000000 8.000000 -0.204757 0.969682 -0.133383 -0.949022 -0.229948 -0.220438 -0.243320 0.080380 0.967194 0.540933 -0.515282 -0.025651 0.386124 0.621355 -0.371663 0.000000 0.000000 0.000000 1.000000 0.079813 0.503469 0.045345 0.878011 1.000000 0.039246 1.000000 0.036587 1.000000 0.079813 0.503469 1.000000 0.284448 0.190371 1.000000 0.164996 0.306258 0.540263 -0.514874 -0.025389 0.385905 0.620374 -0.371307 -0.346131 0.715982 -0.369851 -0.468600 -0.410585 -0.421532 0.549447 -0.523627 -0.025820 0.613666 0.986519 -0.590453 -0.297141 1.040847 -0.743705 -0.588714 -0.695469 -0.542380 0.590297 -0.215192 1.091354 0.285864 0.256728 -0.244329 -0.225375 -0.726432 -0.847025 -0.364922 -0.041536 0.440567 1.091354 2.441401
504.000000 0.000000 118.000000 0.620000 23537.209000 16.000000 8.000000 -0.204740 0.969703 -0.133260 -0.949226 -0.230182 -0.220164 -0.243499 0.080306 0.967330 0.659380 -0.583458 -0.075922 0.160332 0.589731 -0.237443 0.000000 0.000000 0.000000 1.000000 0.078656 0.503917 0.045226 0.877836 1.000000 0.039249 1.000000 0.036851 1.000000 0.078656 0.503917 1.000000 0.284402 0.190226 1.000000 0.165267 0.306334 0.658294 -0.582817 -0.075477 0.159894 0.588780 -0.236927 -0.460357 0.750122 -0.289765 -0.466002 -0.147641 -0.386628 0.669485 -0.592725 -0.076760 0.254264 0.936278 -0.376762 -0.444980 1.083196 -0.638216 -0.538581 -0.291486 -0.470718 0.793726 0.029258 1.001332 0.236864 -0.047038 -0.254644 -0.354663 -0.562268 -0.746688 -0.439064 0.017780 0.325405 1.001332 2.111347
505.000000 0.000000 112.000000 0.660000 19768.233000 17.000000 8.000000 -0.204781 0.969701 -0.133211 -0.949575 -0.230699 -0.219338 -0.243623 0.080340 0.967489 0.810728 -0.700166 -0.110561 -0.297610 0.542137 0.017447 0.000000 0.000000 0.000000 1.000000 0.075871 0.504739 0.045771 0.877411 1.000000 0.039367 1.000000 0.036902 1.000000 0.075871 0.504739 1.000000 0.284152 0.190539 1.000000 0.164992 0.306691 0.809536 -0.699159 -0.110377 -0.297427 0.541511 0.017573 -0.677192 0.836641 -0.159450 -0.391846 0.349401 -0.304251 0.823298 -0.711045 -0.112253 -0.472969 0.861111 0.027945 -0.732476 1.199491 -0.467015 -0.369570 0.483696 -0.311046 1.171028 0.467935 0.784851 0.081757 -0.586434 -0.200257 -0.563617 -0.177440 -0.584594 -0.607411 0.118499 0.095683 1.171028 2.166099
506.000000 0.000000 112.000000 1.020000 15225.329000 18.000000 8.000000 -0.204895 0.969742 -0.132733 -0.950339 -0.231347 -0.218537 -0.243927 0.079929 0.968433 1.360354 -0.847192 -0.513161 -0.837799 0.525100 0.308516 0.000000 0.000000 0.000000 1.000000 0.072110 0.506007 0.044297 0.878313 1.000000 0.039363 1.000000 0.037128 1.000000 0.072110 0.506007 1.000000 0.284502 0.189713 1.000000 0.165777 0.306228 1.358578 -0.845704 -0.512874 -0.836787 0.524059 0.307817 -0.946333 0.969052 -0.022719 -0.653769 1.045900 -0.206672 1.381674 -0.860081 -0.521593 -1.330659 0.833359 0.489490 -1.084890 1.389732 -0.304841 -0.527118 1.506923 -0.125888 1.798649 1.118215 0.712170 0.031736 -1.520078 -0.433600 -1.120411 -0.033933 -0.278571 -0.678238 0.401864 0.002197 1.798649 3.534891
507.000000 0.000000 106.000000 1.420000 13179.378000 19.000000 8.000000 -0.204592 0.969772 -0.132982 -0.950879 -0.234153 -0.217572 -0.243929 0.080644 0.967669 1.453835 -1.707450 0.253615 -1.257573 0.280412 1.790694 0.000000 0.000000 0.000000 1.000000 0.066202 0.512104 0.048630 0.877100 1.000000 0.039722 1.000000 0.037411 1.000000 0.066202 0.512104 1.000000 0.282692 0.191060 1.000000 0.162651 0.309003 1.451719 -1.704848 0.253129 -1.256138 0.279987 1.787779 -1.298363 0.618439 0.679924 0.092004 2.205269 -1.120058 1.476398 -1.733831 0.257432 -1.997510 0.445235 2.842926 -1.232435 0.656982 0.575453 0.479745 3.422131 -1.347085 2.307817 1.944284 0.676857 0.313324 -2.473740 -0.842780 -0.152501 1.478459 0.165923 -2.155316 0.529456 -1.791783 2.473740 6.685044
508.000000 0.000000 99.000000 1.720000 10438.541000 20.000000 8.000000 -0.204211 0.969814 -0.133261 -0.950209 -0.235699 -0.217134 -0.243914 0.081409 0.966536 0.992106 -1.811499 0.819393 -1.354262 0.012452 2.791144 0.000000 0.000000 0.000000 1.000000 0.063788 0.515370 0.052522 0.874382 1.000000 0.039914 1.000000 0.037900 1.000000 0.063788 0.515370 1.000000 0.281505 0.192209 1.000000 0.160487 0.311525 0.990605 -1.808885 0.818279 -1.352493 0.012455 2.787146 -1.047226 0.053071 0.994155 0.836471 2.785320 -1.599198 1.007446 -1.839636 0.832190 -2.150735 0.019807 4.432119 -0.788450 -0.271837 1.060288 1.385186 4.437942 -2.071633 2.048436 2.032264 0.292368 0.276196 -2.758987 -1.002919 0.859823 2.615891 0.710551 -2.908259 0.726723 -2.892087 2.908259 8.969215
509.000000 0.000000 105.000000 1.090000 22353.655000 21.000000 8.000000 -0.599471 0.590844 -0.539942 0.786757 0.313808 -0.530128 -0.145266 -0.742167 -0.652347 -0.672871 0.079525 0.593346 0.681865 -0.404517 -0.006679 0.000000 0.000000 0.000000 0.292583 1.000000 0.387569 1.000000 0.007159 0.199544 0.222852 1.000000 0.047908 0.292583 1.000000 0.387569 0.281357 0.725066 1.000000 0.124719 0.011665 1.000000 -0.672932 0.079387 0.593545 0.682023 -0.404722 -0.006531 -0.400571 0.796515 -0.395944 0.170223 -0.358404 -0.633605 -0.684372 0.080737 0.603635 1.084554 -0.643589 -0.010385 -0.533814 0.937662 -0.403848 0.227688 -0.365847 -1.077444 -1.017866 -0.492377 -0.132331 0.393157 0.972833 0.087299 0.964354 0.078820 0.045032 0.053512 -0.480456 -0.471977 1.017866 2.455728
510.000000 0.000000 100.000000 1.040000 18524.003000 22.000000 8.000000 -0.599171 0.590960 -0.540148 -0.786709 -0.313435 0.530235 0.145292 0.742597 0.651640 -0.752147 0.099031 0.653117 0.770505 0.096017 0.130266 0.000000 0.000000 0.000000 0.293166 1.000000 0.388632 1.000000 0.005227 0.200508 0.223253 1.000000 0.047457 0.293166 1.000000 0.388632 0.283065 0.726883 1.000000 0.124047 0.012096 1.000000 -0.752120 0.098979 0.653141 0.770856 0.096306 0.130221 -0.265514 0.810640 -0.545126 0.471290 -0.326572 -0.529459 -0.764906 0.100662 0.664244 1.225815 0.153147 0.207078 -0.310435 0.927028 -0.616593 0.701646 -0.288320 -0.918569 -0.791282 -0.916325 0.209592 0.084548 0.999346 -0.001528 1.168424 0.167550 -0.208064 -0.377142 -0.083021 -0.252099 1.168424 2.502304
511.000000 0.000000 106.000000 1.160000 19889.344000 23.000000 8.000000 -0.599015 0.590928 -0.540357 -0.786911 -0.312963 0.530322 0.145682 0.742766 0.651259 -0.755151 0.039043 0.716108 0.863005 0.129020 0.065483 0.000000 0.000000 0.000000 0.293913 1.000000 0.389663 1.000000 0.004135 0.201599 0.223703 1.000000 0.046738 0.293913 1.000000 0.389663 0.283939 0.729848 1.000000 0.123490 0.012120 1.000000 -0.755542 0.039033 0.716509 0.863253 0.128909 0.065481 -0.390793 0.897027 -0.506234 0.499926 -0.313238 -0.595078 -0.768386 0.039696 0.728690 1.372745 0.204991 0.104129 -0.488619 1.029275 -0.540656 0.748554 -0.282768 -1.031145 -0.806632 -0.974006 0.314210 0.146835 1.129089 0.008247 1.214110 0.093268 -0.322457 -0.407478 -0.155083 -0.240103 1.214110 2.737947
512.000000 0.000000 105.000000 1.100000 19493.593000 24.000000 8.000000 -0.598649 0.591190 -0.540476 -0.787152 -0.312328 0.530244 0.146171 0.742746 0.651014 -0.806420 0.038356 0.768065 0.924512 0.129519 0.000794 0.000000 0.000000 0.000000 0.295569 1.000000 0.391567 1.000000 0.003428 0.202702 0.224555 1.000000 0.046549 0.295569 1.000000 0.391567 0.284123 0.733722 1.000000 0.123209 0.012210 1.000000 -0.806896 0.038242 0.768654 0.925137 0.129688 0.001035 -0.484035 0.959741 -0.475707 0.542651 -0.349136 -0.622233 -0.820614 0.038892 0.781721 1.471152 0.206231 0.001646 -0.627016 1.100167 -0.473151 0.813433 -0.326242 -1.080753 -0.867294 -1.035681 0.333897 0.165510 1.254074 0.052883 1.255418 0.054227 -0.386780 -0.388124 -0.218393 -0.219737 1.255418 2.923950
513.000000 0.000000 100.000000 2.290000 14120.033000 25.000000 8.000000 -0.049768 0.106726 -0.993042 -0.180665 -0.973551 -0.097837 -0.979757 0.174707 0.064387 -2.576268 2.446017 0.130251 -0.314476 -1.742412 -1.132107 0.000000 0.000000 0.000000 1.000000 0.239185 0.099097 0.488642 1.000000 0.580694 0.386627 1.000000 0.149598 1.000000 0.239185 0.099097 1.000000 0.118291 0.232254 1.000000 0.044734 0.131886 -2.576222 2.446180 0.130042 -0.314359 -1.742383 -1.132416 -0.087721 0.233186 -0.145465 -2.560049 -1.735658 -1.062038 -2.620017 2.487765 0.132252 -0.499894 -2.770738 -1.800767 -0.254233 -0.102508 0.356741 -2.758202 -2.567853 -1.844553 -3.012312 -0.750014 -3.420473 -1.158175 1.654689 2.062850 0.184368 0.592530 1.357623 2.827943 -0.904675 0.565645 3.420473 7.288030
514.000000 0.000000 111.000000 0.680000 22616.025000 26.000000 8.000000 0.181098 0.978944 0.094190 -0.982826 0.174598 0.066039 0.049648 -0.105595 0.993707 0.311789 -0.085839 -0.225950 0.807154 0.393850 0.425078 0.000000 0.000000 0.000000 1.000000 0.233164 0.104069 0.469882 1.000000 0.571739 0.386775 1.000000 0.150031 1.000000 0.233164 0.104069 1.000000 0.124349 0.225014 1.000000 0.043100 0.130536 0.310157 -0.085461 -0.224696 0.803126 0.391850 0.423267 -0.294171 0.765963 -0.471792 -0.072695 -0.427079 -0.647390 0.315430 -0.086914 -0.228516 1.277130 0.623120 0.673080 -0.425980 1.142663 -0.716683 0.023625 -0.653106 -1.060434 -0.102742 -0.611518 0.940030 0.431255 0.024538 -1.018235 0.574105 -0.468667 0.078205 -0.471363 0.586980 0.037412 1.018235 2.766954
515.000000 0.000000 111.000000 0.680000 23724.262000 27.000000 8.000000 0.181137 0.978970 0.093845 -0.982785 0.174499 0.066108 0.049912 -0.105354 0.993611 0.257814 -0.086498 -0.171316 0.878857 0.428939 0.495506 0.000000 0.000000 0.000000 1.000000 0.232702 0.104369 0.468845 1.000000 0.572104 0.386008 1.000000 0.149545 1.000000 0.232702 0.104369 1.000000 0.124969 0.224344 1.000000 0.042297 0.130923 0.256656 -0.085869 -0.170787 0.874602 0.426535 0.493176 -0.327632 0.813171 -0.485538 -0.013366 -0.436112 -0.740776 0.261019 -0.087329 -0.173691 1.390792 0.678276 0.784249 -0.478036 1.228361 -0.750325 0.089875 -0.671795 -1.205319 -0.148671 -0.702481 0.986906 0.433096 0.070151 -1.065426 0.710487 -0.425090 0.078520 -0.561816 0.632330 -0.008006 1.065426 3.031024
516.000000 0.000000 115.000000 0.490000 23796.204000 28.000000 8.000000 -0.049885 0.105117 -0.993208 0.181134 0.978487 0.093715 0.982267 -0.174537 -0.066122 -0.213777 0.271347 -0.057571 -0.472078 0.837931 -0.371748 0.000000 0.000000 0.000000 1.000000 0.232869 0.104484 0.468595 1.000000 0.572319 0.385617 1.000000 0.149736 1.000000 0.232869 0.104484 1.000000 0.125289 0.224205 1.000000 0.042030 0.130843 -0.213806 0.271010 -0.057204 -0.471949 0.837763 -0.371782 -0.287232 0.745942 -0.458709 -0.063610 -0.424427 -0.717749 -0.217441 0.275618 -0.058177 -0.750493 1.332211 -0.591207 -0.429873 1.123470 -0.693597 0.025368 -0.652419 -1.166425 0.648970 -0.438776 0.036195 -1.051551 -0.000009 0.612766 -0.482727 0.130048 -0.648961 -0.166243 0.438785 0.921503 1.051551 2.872735
517.000000 0.000000 107.000000 0.470000 20068.088000 29.000000 8.000000 0.181265 0.978988 0.093405 -0.982553 0.174597 0.066494 0.050304 -0.104927 0.993446 0.131954 -0.025085 -0.106869 0.843673 0.406207 0.482312 0.000000 0.000000 0.000000 1.000000 0.232147 0.105375 0.467513 1.000000 0.573106 0.384949 1.000000 0.148960 1.000000 0.232147 0.105375 1.000000 0.125842 0.223654 1.000000 0.040963 0.131490 0.132195 -0.025619 -0.106576 0.843510 0.406169 0.482148 -0.267509 0.726039 -0.458530 0.062432 -0.400120 -0.745137 0.134443 -0.026055 -0.108388 1.341349 0.645890 0.766712 -0.413532 1.124243 -0.710711 0.161581 -0.625248 -1.196839 -0.218397 -0.745764 0.876810 0.349443 0.135460 -0.959747 0.761477 -0.333730 0.082938 -0.543080 0.610304 -0.015713 0.959747 2.908344
518.000000 0.000000 95.000000 0.730000 13689.823000 30.000000 8.000000 0.181655 0.978874 0.093849 -0.982529 0.174636 0.066876 0.050712 -0.105112 0.993729 0.242071 0.075843 -0.317914 0.862418 0.210354 0.629858 0.000000 0.000000 0.000000 1.000000 0.231867 0.105979 0.470170 1.000000 0.576572 0.385032 1.000000 0.148608 1.000000 0.231867 0.105979 1.000000 0.125588 0.224816 1.000000 0.040401 0.132416 0.241583 0.075788 -0.317371 0.861759 0.210272 0.629363 -0.224883 0.604754 -0.379870 -0.175220 -0.373859 -0.902542 0.245690 0.077076 -0.322766 1.370368 0.334375 1.000813 -0.403567 0.925937 -0.522370 -0.131571 -0.575497 -1.442750 -0.354106 -0.627123 0.764795 0.491778 -0.081201 -1.200102 0.735960 -0.382941 0.435307 -0.381853 0.708323 -0.108837 1.200102 3.038051
519.000000 0.000000 86.000000 1.080000 10186.319000 31.000000 8.000000 0.181790 0.978763 0.094740 -0.982688 0.174121 0.067462 0.050564 -0.105546 0.994205 0.448280 0.174429 -0.622709 0.496568 -0.038665 0.913974 0.000000 0.000000 0.000000 1.000000 0.230223 0.106860 0.474262 1.000000 0.578282 0.385976 1.000000 0.149055 1.000000 0.230223 0.106860 1.000000 0.124082 0.226855 1.000000 0.041294 0.132382 0.447782 0.174381 -0.622163 0.496478 -0.038255 0.913619 -0.191848 0.432714 -0.240866 -0.582985 0.018946 -0.954145 0.455395 0.177345 -0.632740 0.789499 -0.060832 1.452836 -0.408943 0.627050 -0.218106 -0.645361 0.064940 -1.527297 -0.233633 -0.183964 0.410990 0.460660 -0.715035 -1.359659 0.471201 -0.173423 0.948669 -0.237567 0.898999 -0.287237 1.359659 3.028535
520.000000 0.000000 105.000000 2.580000 16275.025000 32.000000 8.000000 0.073127 -0.069308 0.994911 0.182417 0.979779 0.055343 -0.979829 0.173796 0.080080 -1.168911 0.683679 0.485232 2.022205 2.018770 -0.239928 0.000000 0.000000 0.000000 1.000000 0.193741 0.149017 0.361965 1.000000 0.590018 0.283380 1.000000 0.112528 1.000000 0.193741 0.149017 1.000000 0.191213 0.148427 1.000000 0.045337 0.105364 -1.168590 0.683133 0.485457 2.022399 2.018197 -0.239988 -0.505504 0.844357 -0.338853 -1.003781 -0.592694 -2.711876 -1.188456 0.694746 0.493710 3.216018 3.209337 -0.381629 -1.081213 1.320474 -0.239261 -1.094782 -0.877732 -4.289960 -0.771541 -3.391954 1.854326 -0.766086 2.155474 -0.470394 1.843876 -0.781992 -1.383933 -1.072334 1.236480 1.548078 3.391954 8.097718
521.000000 0.000000 97.000000 4.570000 15528.631000 33.000000 8.000000 0.185851 0.981047 0.054830 -0.980638 0.175467 0.087293 0.079264 -0.069303 0.995221 0.277107 0.236294 -0.513401 1.507723 -0.647229 2.665281 0.000000 0.000000 0.000000 1.000000 0.185136 0.164690 0.366945 1.000000 0.618875 0.281663 1.000000 0.105111 1.000000 0.185136 0.164690 1.000000 0.195010 0.151111 1.000000 0.057238 0.103562 0.276504 0.236286 -0.512790 1.504533 -0.645861 2.660347 -0.960934 0.552273 0.408660 -0.757148 0.207200 -2.939713 0.281204 0.240303 -0.521507 2.392509 -1.027048 4.230483 -1.661574 0.876037 0.785537 -0.990378 0.359365 -4.658074 -1.379330 -0.540749 0.574145 1.412726 -1.078056 -3.031531 2.376120 0.422644 2.457386 -0.996789 1.618805 -1.835371 3.031531 8.639498
522.000000 0.000000 94.000000 3.550000 12455.421000 34.000000 8.000000 0.184035 0.981458 0.053587 -0.980347 0.175413 0.087984 0.078837 -0.069138 0.994725 0.014399 0.214352 -0.228751 0.949214 0.024650 1.775799 0.000000 0.000000 0.000000 1.000000 0.183307 0.166730 0.361887 1.000000 0.609506 0.280762 1.000000 0.103414 1.000000 0.183307 0.166730 1.000000 0.193862 0.148190 1.000000 0.056529 0.103327 0.014172 0.214304 -0.228476 0.947459 0.024821 1.772206 -0.568146 0.710245 -0.142099 -0.248800 0.254429 -1.880911 0.014413 0.217948 -0.232360 1.506650 0.039470 2.818162 -1.020988 1.164886 -0.143898 -0.328929 0.408501 -2.962994 -0.682066 -0.714294 0.548108 0.515881 -0.636168 -1.866342 1.664853 0.434678 1.318234 -0.982786 1.350461 -0.950559 1.866342 5.549173
523.000000 0.000000 88.000000 1.260000 9249.295000 35.000000 8.000000 0.182438 0.981792 0.052933 -0.980391 0.176044 0.089227 0.079079 -0.069049 0.995462 0.348383 0.287798 -0.636181 0.430506 0.336389 0.650564 0.000000 0.000000 0.000000 1.000000 0.182391 0.169577 0.360476 1.000000 0.603999 0.278708 1.000000 0.100811 1.000000 0.182391 0.169577 1.000000 0.191794 0.146579 1.000000 0.057015 0.102982 0.347304 0.287409 -0.634713 0.430086 0.335875 0.649677 -0.004194 0.611518 -0.607324 -0.407634 -0.002511 -0.696656 0.353208 0.292295 -0.645503 0.683922 0.534109 1.033116 -0.169241 0.968195 -0.798954 -0.382414 0.033341 -1.088231 -0.036293 -0.472392 0.522127 0.086029 -0.550280 -1.108700 0.293256 -0.265164 0.586573 -0.256963 1.022671 0.179136 1.108700 2.530089
524.000000 0.000000 94.000000 0.780000 12408.722000 36.000000 8.000000 0.181439 0.982044 0.051670 -0.979781 0.174903 0.089209 0.079454 -0.067717 0.993880 -0.464795 0.277194 0.187601 0.516324 0.367381 0.702032 0.000000 0.000000 0.000000 1.000000 0.179158 0.170181 0.353697 1.000000 0.599093 0.277058 1.000000 0.098858 1.000000 0.179158 0.170181 1.000000 0.192297 0.143815 1.000000 0.059258 0.100539 -0.463921 0.276285 0.187635 0.515245 0.366819 0.700721 -0.065603 0.454838 -0.389235 0.370182 0.101131 -0.851951 -0.471807 0.280982 0.190825 0.819343 0.583315 1.114287 -0.248602 0.844705 -0.596103 0.415514 0.118895 -1.292314 -0.403683 -0.879958 0.265308 -0.210967 0.150108 -0.518882 1.059920 0.390929 0.253575 -0.656237 0.729850 -0.179962 1.059920 2.695662
525.000000 0.000000 83.000000 0.880000 9099.077000 37.000000 8.000000 0.181745 0.982020 0.051035 -0.979614 0.175480 0.089144 0.079082 -0.067431 0.993047 -0.780949 0.028385 0.752564 0.391509 0.585871 0.585137 0.000000 0.000000 0.000000 1.000000 0.180125 0.170492 0.350694 1.000000 0.598010 0.277552 1.000000 0.100027 1.000000 0.180125 0.170492 1.000000 0.194069 0.142711 1.000000 0.059036 0.099977 -0.779269 0.028465 0.750803 0.390731 0.585083 0.584206 -0.244282 0.584191 -0.339909 0.848057 0.214261 -0.631525 -0.792516 0.028949 0.763567 0.621340 0.930398 0.929005 -0.392254 1.055750 -0.663496 0.937512 0.264846 -0.957764 -0.209189 -0.968857 0.298133 -0.461534 0.509665 0.002343 1.268194 0.760872 -0.300476 -1.059005 0.459192 -0.299338 1.268194 2.856956
526.000000 0.000000 85.000000 2.590000 8520.113000 38.000000 8.000000 -0.185882 -0.979854 -0.073033 -0.050489 0.084635 -0.993404 0.980358 -0.178296 -0.064072 -1.072874 0.645530 0.427344 0.471495 1.428101 0.500043 0.000000 0.000000 0.000000 1.000000 0.235604 0.108134 0.396853 1.000000 0.560848 0.340942 1.000000 0.160961 1.000000 0.235604 0.108134 1.000000 0.173118 0.181673 1.000000 0.013479 0.122787 -1.072940 0.645407 0.427533 0.471219 1.428503 0.499894 -0.172810 0.504190 -0.331380 0.780673 0.634363 -1.476150 -1.091180 0.656378 0.434801 0.749333 2.271605 0.794931 -0.491328 1.064008 -0.572679 0.789020 0.913407 -2.225147 -0.091973 -1.946730 0.519855 -1.334903 0.604363 -0.007464 1.253422 0.641595 -0.512391 -1.161450 1.342367 0.693308 1.946730 4.666546
527.000000 0.000000 86.000000 1.280000 7239.432000 39.000000 8.000000 0.188911 0.979205 0.073966 -0.978815 0.179189 0.063045 0.050004 -0.084994 0.993011 -1.672789 1.248401 0.424388 0.791038 0.170001 2.406042 0.000000 0.000000 0.000000 1.000000 0.239714 0.105576 0.400888 1.000000 0.572755 0.344593 1.000000 0.167019 1.000000 0.239714 0.105576 1.000000 0.177990 0.184556 1.000000 0.014191 0.122668 -1.673210 1.248582 0.424627 0.790757 0.170089 2.405796 0.202615 0.120406 -0.323021 0.717619 0.982056 -2.674355 -1.701654 1.269808 0.431846 1.257462 0.270476 3.825697 -0.335466 0.700027 -0.364561 0.596575 1.404274 -3.992739 -1.616030 -1.836873 -0.589316 -0.810159 -0.177480 -1.204193 2.946189 1.919475 1.793510 -1.330159 2.014352 -1.109316 2.946189 7.477485
528.000000 0.000000 105.000000 0.640000 14945.498000 40.000000 8.000000 0.187476 0.979398 0.075053 -0.981375 0.182161 0.060839 0.047571 -0.085982 0.995354 0.061217 0.071428 -0.132644 0.895339 0.294710 0.505672 0.000000 0.000000 0.000000 1.000000 0.250245 0.100062 0.402923 1.000000 0.561025 0.345550 1.000000 0.169794 1.000000 0.250245 0.100062 1.000000 0.173917 0.184931 1.000000 0.019999 0.118115 0.060753 0.071544 -0.132297 0.895272 0.294729 0.505533 -0.192682 0.597572 -0.404890 0.021415 -0.413997 -0.840338 0.061786 0.072760 -0.134546 1.423662 0.468678 0.803899 -0.346933 0.951672 -0.604739 0.086047 -0.654454 -1.332195 -0.394351 -0.777025 0.768064 0.385390 0.172865 -0.989550 0.829246 -0.333169 0.221485 -0.434895 0.604160 -0.052221 0.989550 2.952795
529.000000 0.000000 105.000000 0.560000 15912.811000 41.000000 8.000000 0.188137 0.979290 0.074807 -0.980978 0.182912 0.060440 0.047129 -0.085726 0.994581 -0.302159 -0.015218 0.317377 0.901548 0.342586 0.457321 0.000000 0.000000 0.000000 1.000000 0.252426 0.099354 0.400913 1.000000 0.561589 0.346727 1.000000 0.171906 1.000000 0.252426 0.099354 1.000000 0.175837 0.184673 1.000000 0.020290 0.117306 -0.302333 -0.014791 0.317125 0.901551 0.342390 0.457393 -0.269609 0.542985 -0.273376 0.422283 -0.388770 -0.827488 -0.307473 -0.015043 0.322516 1.433646 0.544469 0.727347 -0.414897 0.914425 -0.499528 0.506973 -0.643201 -1.296365 -0.482389 -0.926946 0.688178 0.243621 0.545537 -0.625030 1.139413 -0.031154 -0.063148 -0.657024 0.381409 -0.212468 1.139413 2.990090
530.000000 0.000000 107.000000 0.500000 15844.864000 42.000000 8.000000 0.188526 0.979168 0.075414 -0.980978 0.183292 0.059746 0.046373 -0.085954 0.994563 -0.304162 -0.044766 0.348928 0.913312 0.209959 0.481013 0.000000 0.000000 0.000000 1.000000 0.254614 0.097599 0.402072 1.000000 0.561580 0.348422 1.000000 0.174191 1.000000 0.254614 0.097599 1.000000 0.175814 0.185855 1.000000 0.021857 0.116085 -0.303954 -0.044777 0.348731 0.913636 0.209609 0.480887 -0.309624 0.438432 -0.128807 0.392012 -0.403439 -0.865532 -0.309121 -0.045538 0.354660 1.452864 0.333320 0.764707 -0.461955 0.743425 -0.281469 0.449730 -0.666030 -1.360107 -0.564659 -0.836814 0.621599 0.349444 0.551926 -0.634332 1.176307 -0.009951 0.012733 -0.611648 0.284888 -0.339493 1.176307 2.958918
531.000000 0.000000 111.000000 0.420000 19945.048000 43.000000 8.000000 0.188591 0.979117 0.075917 -0.981405 0.183991 0.059649 0.046030 -0.086474 0.995465 0.185107 -0.096734 -0.088374 0.852234 0.207525 0.203625 0.000000 0.000000 0.000000 1.000000 0.256614 0.097063 0.404716 1.000000 0.561810 0.348863 1.000000 0.174988 1.000000 0.256614 0.097063 1.000000 0.175095 0.186724 1.000000 0.023108 0.115651 0.185123 -0.096677 -0.088446 0.852302 0.207536 0.203769 -0.235287 0.511088 -0.275801 0.001303 -0.578780 -0.552653 0.188270 -0.098321 -0.089949 1.355331 0.330023 0.324034 -0.324470 0.763436 -0.438966 0.073554 -0.903197 -0.903249 -0.301580 -0.571043 0.805043 0.535580 0.307443 -0.799181 0.572015 -0.534608 -0.005863 -0.270435 0.263600 -0.000972 0.805043 2.496460
532.000000 0.000000 115.000000 0.620000 23840.797000 44.000000 8.000000 0.188909 0.979074 0.075684 -0.981230 0.184109 0.059602 0.045836 -0.086309 0.995123 0.013271 -0.116506 0.103235 0.777448 0.264609 0.298520 0.000000 0.000000 0.000000 1.000000 0.256859 0.097087 0.403655 1.000000 0.562072 0.349211 1.000000 0.175986 1.000000 0.256859 0.097087 1.000000 0.176178 0.186407 1.000000 0.023183 0.115281 0.013072 -0.116142 0.103070 0.777340 0.265099 0.298297 -0.286671 0.528115 -0.241444 0.165334 -0.434944 -0.591147 0.013294 -0.118117 0.104822 1.236126 0.421561 0.474352 -0.392183 0.817749 -0.425567 0.237761 -0.688394 -0.954493 -0.278897 -0.623100 0.730396 0.386193 0.348359 -0.660933 0.735666 -0.273627 -0.069463 -0.456769 0.274740 -0.112566 0.735666 2.414512
533.000000 0.000000 118.000000 0.610000 28015.780000 45.000000 8.000000 0.189179 0.979021 0.075697 -0.981145 0.184334 0.059498 0.045739 -0.086338 0.995074 -0.019729 -0.101404 0.121133 0.793630 0.275701 0.320967 0.000000 0.000000 0.000000 1.000000 0.257550 0.096852 0.403739 1.000000 0.562841 0.349565 1.000000 0.176654 1.000000 0.257550 0.096852 1.000000 0.176738 0.186509 1.000000 0.023335 0.115161 -0.019958 -0.100895 0.120853 0.793513 0.275457 0.321061 -0.282806 0.532923 -0.250117 0.189952 -0.428913 -0.622808 -0.020297 -0.102610 0.122907 1.261844 0.438032 0.510551 -0.393800 0.833851 -0.440050 0.263599 -0.681819 -1.000716 -0.302716 -0.660367 0.727576 0.369924 0.365177 -0.665114 0.782040 -0.248251 -0.062462 -0.479324 0.295190 -0.121673 0.782040 2.484637
534.000000 0.000000 117.000000 0.590000 28735.901000 46.000000 8.000000 0.189373 0.978966 0.075922 -0.981118 0.184257 0.059609 0.045702 -0.086669 0.995138 -0.000380 -0.048275 0.048655 0.744545 0.319837 0.445851 0.000000 0.000000 0.000000 1.000000 0.257334 0.096994 0.405011 1.000000 0.563978 0.350285 1.000000 0.177005 1.000000 0.257334 0.096994 1.000000 0.176678 0.187094 1.000000 0.023794 0.115286 -0.000837 -0.048172 0.049008 0.744661 0.319902 0.445577 -0.272364 0.589557 -0.317192 0.136465 -0.317086 -0.690946 -0.000851 -0.048991 0.049842 1.184160 0.508708 0.708556 -0.406583 0.929484 -0.522901 0.203257 -0.503393 -1.104290 -0.256099 -0.671458 0.710763 0.295405 0.214860 -0.752003 0.793393 -0.173469 0.041240 -0.537294 0.456598 -0.121936 0.793393 2.548831
535.000000 0.000000 117.000000 0.330000 29183.289000 47.000000 8.000000 0.189588 0.978911 0.076089 -0.981092 0.184554 0.059486 0.045595 -0.086801 0.995158 0.015111 -0.053803 0.038692 0.777318 0.303424 0.408229 0.000000 0.000000 0.000000 1.000000 0.258279 0.096644 0.405569 1.000000 0.564705 0.350815 1.000000 0.177577 1.000000 0.258279 0.096644 1.000000 0.176850 0.187480 1.000000 0.024100 0.115181 0.015481 -0.054012 0.038530 0.777179 0.303454 0.407964 -0.266765 0.577366 -0.310601 0.128289 -0.368547 -0.679756 0.015745 -0.054930 0.039185 1.235870 0.482553 0.648744 -0.394780 0.906211 -0.511431 0.197293 -0.583752 -1.088345 -0.278688 -0.672691 0.730396 0.336393 0.249263 -0.759821 0.778960 -0.230123 0.029425 -0.500273 0.423428 -0.106270 0.778960 2.559396
536.000000 0.000000 116.000000 0.350000 29108.778000 48.000000 8.000000 0.189691 0.978908 0.075873 -0.980821 0.184840 0.059422 0.045617 -0.086555 0.994812 -0.178614 -0.030468 0.209082 0.814340 0.299217 0.302340 0.000000 0.000000 0.000000 1.000000 0.258906 0.096617 0.404263 1.000000 0.564731 0.350790 1.000000 0.177757 1.000000 0.258906 0.096617 1.000000 0.177501 0.187115 1.000000 0.023689 0.115140 -0.178670 -0.030859 0.209529 0.814362 0.299162 0.302094 -0.215472 0.483991 -0.268519 0.316097 -0.427707 -0.650456 -0.181707 -0.031384 0.213091 1.294999 0.475728 0.480389 -0.322211 0.796135 -0.473924 0.399394 -0.694428 -1.025156 -0.395835 -0.784265 0.661527 0.273097 0.493738 -0.563623 0.885974 -0.171387 -0.097903 -0.490139 0.290527 -0.101709 0.885974 2.553713
537.000000 0.000000 114.000000 0.310000 27984.823000 49.000000 8.000000 0.189772 0.978909 0.075662 -0.980791 0.184986 0.059531 0.045561 -0.086435 0.994791 -0.188689 -0.044918 0.233607 0.727733 0.350049 0.269484 0.000000 0.000000 0.000000 1.000000 0.258985 0.096935 0.403661 1.000000 0.564625 0.350594 1.000000 0.178052 1.000000 0.258985 0.096935 1.000000 0.178021 0.186746 1.000000 0.023615 0.114990 -0.188737 -0.044920 0.233657 0.727809 0.349647 0.269573 -0.208633 0.504155 -0.295522 0.344530 -0.368130 -0.569219 -0.191946 -0.045684 0.237630 1.157362 0.556009 0.428675 -0.303398 0.827571 -0.524173 0.435376 -0.600258 -0.896879 -0.305213 -0.759192 0.639770 0.185790 0.472859 -0.472123 0.822870 -0.122112 -0.167646 -0.517658 0.286333 -0.063678 0.822870 2.374928
538.000000 0.000000 109.000000 0.320000 23007.470000 50.000000 8.000000 0.189928 0.978882 0.075611 -0.980704 0.185212 0.059680 0.045649 -0.086427 0.994857 -0.176817 0.000679 0.176138 0.702331 0.355504 0.225211 0.000000 0.000000 0.000000 1.000000 0.259257 0.097261 0.403823 1.000000 0.565495 0.350500 1.000000 0.178130 1.000000 0.259257 0.097261 1.000000 0.178386 0.186745 1.000000 0.023401 0.115173 -0.176811 0.000924 0.175887 0.701825 0.355407 0.225574 -0.145672 0.481725 -0.336054 0.317616 -0.370577 -0.528717 -0.179817 0.000940 0.178877 1.116041 0.565168 0.358708 -0.228727 0.797560 -0.568833 0.411574 -0.604057 -0.827966 -0.298687 -0.760144 0.612557 0.151099 0.455616 -0.455628 0.748500 -0.162744 -0.156929 -0.449813 0.304528 0.011644 0.760144 2.275390
539.000000 0.000000 106.000000 1.530000 19333.077000 51.000000 8.000000 0.190106 0.978846 0.075626 -0.980383 0.185431 0.059730 0.045748 -0.086073 0.994700 -0.328172 0.121085 0.207087 0.700021 0.165403 0.175990 0.000000 0.000000 0.000000 1.000000 0.259643 0.097369 0.403376 1.000000 0.566374 0.350229 1.000000 0.178285 1.000000 0.259643 0.097369 1.000000 0.178751 0.186911 1.000000 0.022711 0.115238 -0.328070 0.121054 0.207016 0.699930 0.165453 0.175968 -0.020413 0.211089 -0.190676 0.345378 -0.394301 -0.561592 -0.333647 0.123112 0.210535 1.113028 0.263104 0.279824 -0.092680 0.414292 -0.321612 0.408691 -0.656759 -0.855316 -0.533451 -0.748275 0.375332 0.160509 0.562316 -0.346468 0.790791 -0.117993 -0.028864 -0.257339 0.185959 -0.042516 0.790791 2.101255
540.000000 0.000000 113.000000 3.250000 18486.390000 52.000000 8.000000 0.188687 0.979135 0.075449 -0.973257 0.185434 0.057526 0.046886 -0.082567 0.986101 -5.682859 1.945143 3.737716 2.164456 -1.229272 -1.154785 0.000000 0.000000 0.000000 1.000000 0.261997 0.093511 0.384826 1.000000 0.561601 0.354253 1.000000 0.174274 1.000000 0.261997 0.093511 1.000000 0.178144 0.187187 1.000000 0.015709 0.116230 -5.683057 1.945159 3.737898 2.164524 -1.229155 -1.154719 1.880412 -3.311181 1.430769 4.354880 -1.626817 -1.634227 -5.779669 1.978227 3.801442 3.442026 -1.954602 -1.836233 2.032178 -3.945635 1.913457 4.444525 -3.105073 -1.961986 -5.370312 -3.774386 -2.559909 -0.963984 6.066313 3.255910 4.567035 1.756632 -0.696001 0.803277 -2.291926 -0.792648 6.066313 11.609163
541.000000 0.000000 117.000000 0.630000 21526.885000 53.000000 8.000000 0.191543 0.978316 0.078794 -0.980818 0.186186 0.063537 0.048660 -0.090414 0.995461 0.364802 0.012522 -0.377325 0.654911 0.348539 0.356989 0.000000 0.000000 0.000000 1.000000 0.257087 0.104129 0.421528 1.000000 0.586046 0.356636 1.000000 0.172970 1.000000 0.257087 0.104129 1.000000 0.173761 0.195474 1.000000 0.022701 0.122817 0.365107 0.012297 -0.377404 0.654706 0.348264 0.357077 -0.165372 0.672484 -0.507112 -0.211337 -0.343436 -0.533284 0.371313 0.012506 -0.383819 1.041113 0.553810 0.567824 -0.276863 1.005333 -0.728470 -0.139659 -0.515300 -0.872739 -0.052458 -0.504642 0.797607 0.345423 -0.115062 -0.965128 0.348564 -0.501501 0.167520 -0.296106 0.619704 0.156078 0.965128 2.359483
542.000000 0.000000 115.000000 0.450000 19806.930000 54.000000 8.000000 0.191584 0.978311 0.078761 -0.980850 0.186133 0.063693 0.048832 -0.090372 0.995557 0.408711 0.024714 -0.433425 0.652570 0.322687 0.401587 0.000000 0.000000 0.000000 1.000000 0.256719 0.104472 0.421767 1.000000 0.586689 0.356287 1.000000 0.172653 1.000000 0.256719 0.104472 1.000000 0.173819 0.195456 1.000000 0.022341 0.123114 0.408665 0.024770 -0.433435 0.652682 0.322695 0.401454 -0.168990 0.671963 -0.502973 -0.273307 -0.327124 -0.566384 0.415612 0.025191 -0.440803 1.037895 0.513149 0.638392 -0.290314 0.998724 -0.708410 -0.211731 -0.485831 -0.926974 -0.054838 -0.473823 0.792600 0.373615 -0.186533 -1.033971 0.334711 -0.512727 0.241372 -0.279873 0.660356 0.139111 1.033971 2.407445
543.000000 0.000000 97.000000 4.650000 13443.955000 55.000000 8.000000 0.185488 0.978735 0.087594 -0.982223 0.180523 0.064166 0.040346 -0.094381 1.008000 4.584492 3.876584 -8.461076 -3.900167 -1.657851 -0.043597 0.000000 0.000000 0.000000 1.000000 0.247212 0.100875 0.458110 1.000000 0.560252 0.358088 1.000000 0.182465 1.000000 0.247212 0.100875 1.000000 0.149418 0.209625 1.000000 0.044204 0.108552 4.584214 3.877006 -8.461220 -3.899744 -1.657785 -0.043730 4.178141 -1.950120 -2.228020 -7.038143 2.441733 1.779866 4.662146 3.942915 -8.605061 -6.201373 -2.636209 -0.069540 4.419053 -3.302834 -1.116220 -7.705301 4.156783 2.929887 1.749097 3.901552 -3.314303 -1.161847 -7.919625 -2.856225 -7.976404 -2.913004 6.170528 6.227307 4.018072 4.074851 7.976404 17.413450
544.000000 0.000000 91.000000 1.550000 12705.519000 56.000000 8.000000 0.185936 0.979278 0.080270 -0.982196 0.182326 0.050258 0.035753 -0.089332 0.995339 0.072460 -0.165286 0.092826 0.689732 0.468501 0.022569 0.000000 0.000000 0.000000 1.000000 0.268985 0.075255 0.406824 1.000000 0.529292 0.364022 1.000000 0.193979 1.000000 0.268985 0.075255 1.000000 0.166775 0.191594 1.000000 0.045774 0.097769 0.072295 -0.165482 0.093187 0.689991 0.468666 0.022409 -0.207330 0.644110 -0.436780 0.232935 -0.500808 -0.295798 0.073524 -0.168295 0.094771 1.097224 0.745273 0.035634 -0.239743 0.982981 -0.743238 0.362978 -0.786358 -0.493738 -0.044961 -0.653474 0.850918 0.242406 0.442066 -0.453813 0.471161 -0.424718 -0.397105 -0.426200 0.211408 0.182312 0.850918 2.312113
545.000000 0.000000 99.000000 0.940000 10557.902000 57.000000 8.000000 -0.980902 0.181385 0.070225 0.187000 0.979485 0.056296 -0.059866 0.069362 -0.997051 0.005813 1.241152 -1.246965 -0.306547 -0.642100 0.908173 0.000000 0.000000 0.000000 1.000000 0.226244 0.127647 0.356700 1.000000 0.569292 0.294263 1.000000 0.146637 1.000000 0.226244 0.127647 1.000000 0.203027 0.148149 1.000000 0.022107 0.107288 0.005573 1.241432 -1.247005 -0.306668 -0.641949 0.908339 -0.357532 1.031701 -0.674169 -1.146819 -0.159382 -0.845789 0.005668 1.262536 -1.268204 -0.487663 -1.020827 1.444441 -0.594018 1.445123 -0.851105 -1.155950 -0.140959 -1.424289 -0.730777 0.102724 -1.128953 -0.295451 -1.308834 -0.910659 -0.129453 0.268722 2.039612 0.860231 1.206110 0.026729 2.039612 3.860375
546.000000 0.000000 94.000000 0.860000 8380.343000 58.000000 8.000000 0.187797 0.980653 0.055252 -0.981586 0.182095 0.070011 0.060037 -0.068412 0.996838 0.591244 -0.195301 -0.395942 0.798620 0.369412 0.949808 0.000000 0.000000 0.000000 1.000000 0.227181 0.127657 0.351339 1.000000 0.569422 0.293846 1.000000 0.147474 1.000000 0.227181 0.127657 1.000000 0.206261 0.146107 1.000000 0.023701 0.105263 0.590203 -0.194871 -0.395333 0.797469 0.368975 0.948425 -0.599997 1.014847 -0.414850 -0.410813 -0.151535 -0.984975 0.600237 -0.198183 -0.402053 1.268135 0.586745 1.508186 -0.857567 1.486115 -0.628548 -0.390563 -0.186238 -1.628166 0.047777 -0.431298 1.083205 0.604130 -0.507183 -1.542611 0.724245 -0.311183 0.459406 -0.772022 0.938481 -0.292947 1.542611 3.677362
547.000000 0.000000 89.000000 1.590000 6148.616000 59.000000 8.000000 0.188503 0.980504 0.055491 -0.982689 0.182290 0.070188 0.060492 -0.068764 0.998347 1.485141 -0.430621 -1.054520 0.948269 0.311641 1.301870 0.000000 0.000000 0.000000 1.000000 0.227641 0.127756 0.355096 1.000000 0.573663 0.292678 1.000000 0.147559 1.000000 0.227641 0.127756 1.000000 0.206836 0.146620 1.000000 0.024031 0.105812 1.482856 -0.429901 -1.052955 0.947276 0.311487 1.300084 -0.945384 1.416355 -0.470972 -1.187369 -0.222748 -1.187642 1.508065 -0.437209 -1.070856 1.506358 0.495326 2.067394 -1.293555 1.941842 -0.648287 -1.211573 -0.217045 -2.036536 0.381403 -0.023029 1.611339 1.206907 -1.281882 -2.511818 0.406138 -0.823798 0.900479 -0.787541 1.304911 -0.383109 2.511818 5.077790
548.000000 0.000000 90.000000 0.610000 11231.408000 60.000000 8.000000 -0.172873 -0.983761 -0.048261 -0.024517 0.054396 -0.997845 0.984435 -0.170255 -0.032095 -0.269191 0.103678 0.165513 0.686260 0.572822 0.559646 0.000000 0.000000 0.000000 1.000000 0.258044 0.049784 0.290509 1.000000 0.417686 0.283621 1.000000 0.202917 1.000000 0.258044 0.049784 1.000000 0.206020 0.113207 1.000000 0.023636 0.061215 -0.268963 0.103532 0.165431 0.686227 0.572799 0.559872 -0.068092 0.663448 -0.595357 0.283284 -0.102246 -0.823012 -0.273535 0.105292 0.168243 1.091239 0.910865 0.890308 -0.195738 1.126591 -0.930853 0.351216 -0.187365 -1.274664 -0.228293 -0.972011 0.662700 -0.081018 0.262385 -0.628608 0.989318 0.098326 -0.034092 -0.761026 0.709626 -0.017307 0.989318 2.934399
549.000000 0.000000 96.000000 3.580000 19256.967000 0.000000 9.000000 -0.193986 0.832996 -0.518157 0.690074 -0.258086 -0.673820 -0.696792 -0.490110 -0.523912 -0.491611 1.090056 -0.598445 0.663509 0.811394 -0.147379 0.000000 0.000000 0.000000 0.006635 1.000000 0.482223 0.149130 0.885523 1.000000 1.000000 0.639895 0.263046 0.006635 1.000000 0.482223 0.762866 0.720330 1.000000 0.167992 0.010591 1.000000 -0.491403 1.089702 -0.598299 0.663472 0.811188 -0.147014 -0.167717 0.390666 -0.222949 0.992890 0.358455 -0.885285 -0.499757 1.108227 -0.608470 1.055054 1.289950 -0.233781 -0.387075 0.571104 -0.184030 1.381398 0.793239 -0.981543 -0.560560 -1.613800 0.300888 -0.752352 0.481783 -0.379665 0.290901 -0.570547 0.078778 0.269659 1.132018 1.322899 1.613800 3.356714
550.000000 0.000000 117.000000 0.370000 31280.909000 1.000000 9.000000 -0.195117 0.833158 -0.517472 -0.697663 -0.488159 -0.525190 -0.689689 0.257068 0.675091 -0.273624 -0.702718 0.976342 -0.565868 0.297914 -0.591951 0.000000 0.000000 0.000000 0.007573 1.000000 0.480728 0.147846 0.869119 1.000000 1.000000 0.645904 0.262383 0.007573 1.000000 0.480728 0.769481 0.726561 1.000000 0.170120 0.013349 1.000000 -0.273867 -0.702449 0.976317 -0.565869 0.297602 -0.591556 -0.510495 0.890457 -0.379962 -0.094340 -0.449673 -0.842306 -0.278523 -0.714391 0.992914 -0.899846 0.473246 -0.940693 -0.877328 1.411588 -0.534260 -0.293962 -0.525495 -0.905027 0.738505 0.352101 0.003784 -0.382620 0.535738 1.270459 -0.232335 0.502386 -1.274243 -0.506170 -0.887839 -0.119766 1.274243 2.848943
551.000000 0.000000 111.000000 0.430000 26158.761000 2.000000 9.000000 -0.194858 0.833025 -0.517783 -0.697501 -0.488286 -0.525588 -0.689898 0.257079 0.674881 -0.219278 -0.806554 1.025831 -0.484685 0.430204 -0.649141 0.000000 0.000000 0.000000 0.006626 1.000000 0.479835 0.148301 0.868955 1.000000 1.000000 0.644238 0.262252 0.006626 1.000000 0.479835 0.768960 0.725756 1.000000 0.169536 0.013331 1.000000 -0.218997 -0.806266 1.025262 -0.484477 0.429963 -0.649522 -0.436701 0.865575 -0.428875 -0.231463 -0.435528 -0.954394 -0.222720 -0.819972 1.042692 -0.770416 0.683726 -1.032869 -0.745953 1.388212 -0.642258 -0.505353 -0.498198 -1.039618 0.837479 0.279218 0.208436 -0.349824 0.623748 1.252790 -0.219586 0.409456 -1.461227 -0.617892 -0.902966 -0.059632 1.461227 3.016168
552.000000 0.000000 112.000000 0.430000 25578.150000 3.000000 9.000000 -0.194962 0.833092 -0.517637 -0.697703 -0.487927 -0.525515 -0.689811 0.257012 0.674961 -0.251002 -0.765739 1.016741 -0.590325 0.393187 -0.781355 0.000000 0.000000 0.000000 0.007087 1.000000 0.479595 0.147860 0.867803 1.000000 1.000000 0.645012 0.262426 0.007087 1.000000 0.479595 0.769420 0.725791 1.000000 0.169894 0.013727 1.000000 -0.251158 -0.765459 1.016617 -0.590182 0.393524 -0.781410 -0.569685 1.018800 -0.449115 -0.255140 -0.526415 -0.911443 -0.255428 -0.778471 1.033899 -0.938508 0.625782 -1.242598 -0.965593 1.623649 -0.658057 -0.548659 -0.641948 -0.986209 0.852150 0.341201 0.085862 -0.425087 0.650510 1.416799 -0.364067 0.402221 -1.502660 -0.488083 -0.991711 0.022866 1.502660 3.325608
553.000000 0.000000 111.000000 0.770000 19625.175000 4.000000 9.000000 -0.194806 0.833010 -0.517828 -0.697432 -0.488279 -0.525951 -0.690097 0.256846 0.675182 -0.078521 -0.805297 0.883818 -0.385890 0.620621 -0.736899 0.000000 0.000000 0.000000 0.006365 1.000000 0.480121 0.148751 0.866205 1.000000 1.000000 0.643640 0.262300 0.006365 1.000000 0.480121 0.769907 0.726538 1.000000 0.169219 0.013812 1.000000 -0.078765 -0.805210 0.883974 -0.385750 0.620674 -0.736810 -0.375659 0.846443 -0.470783 -0.479814 -0.342620 -0.952731 -0.080104 -0.818898 0.899002 -0.613420 0.986996 -1.171675 -0.613600 1.382330 -0.768730 -0.859338 -0.384598 -1.067873 0.954979 0.149100 0.454123 -0.351755 0.627625 1.128480 -0.329044 0.171812 -1.582603 -0.625935 -0.776725 0.179944 1.582603 3.224534
554.000000 0.000000 109.000000 0.680000 17443.319000 5.000000 9.000000 -0.194681 0.833100 -0.517730 -0.696968 -0.488354 -0.526183 -0.690371 0.256734 0.674803 -0.165548 -0.727493 0.893041 -0.360170 0.540977 -0.629191 0.000000 0.000000 0.000000 0.005550 1.000000 0.479434 0.150007 0.866091 1.000000 1.000000 0.642720 0.263289 0.005550 1.000000 0.479434 0.770342 0.727992 1.000000 0.168424 0.014375 1.000000 -0.165751 -0.727354 0.893105 -0.360337 0.540870 -0.629400 -0.303843 0.779813 -0.475970 -0.349550 -0.334556 -0.893310 -0.168569 -0.739719 0.908288 -0.573008 0.860092 -1.000872 -0.522075 1.256703 -0.734628 -0.670293 -0.364219 -0.996200 0.818231 0.115969 0.350373 -0.351889 0.614300 1.082158 -0.202908 0.264950 -1.432531 -0.615323 -0.730269 0.086939 1.432531 2.882776
555.000000 0.000000 112.000000 0.820000 14190.869000 6.000000 9.000000 -0.194160 0.833214 -0.517742 -0.695997 -0.487906 -0.528415 -0.691569 0.256690 0.672924 -0.221482 -1.065858 1.287340 -0.253584 0.125364 -1.092117 0.000000 0.000000 0.000000 0.000985 1.000000 0.471784 0.153510 0.862027 1.000000 1.000000 0.638741 0.266004 0.000985 1.000000 0.471784 0.772965 0.731630 1.000000 0.165863 0.016312 1.000000 -0.221634 -1.065882 1.287516 -0.253663 0.125069 -1.091875 -0.409022 0.703049 -0.294027 -0.398031 -1.028809 -1.050118 -0.225402 -1.084002 1.309404 -0.403374 0.198885 -1.736300 -0.704573 1.147651 -0.443078 -0.792791 -1.395001 -1.052491 0.596393 0.434004 0.267040 0.104650 1.170746 1.500100 -0.246937 0.082417 -1.767140 -0.349457 -1.604751 -0.187068 1.767140 3.749882
556.000000 0.000000 120.000000 0.830000 22069.806000 7.000000 9.000000 -0.193946 0.833269 -0.517734 -0.695012 -0.488241 -0.528455 -0.692515 0.256200 0.672774 -0.245486 -0.589420 0.834905 -0.344650 0.262888 -0.778694 0.000000 0.000000 0.000000 0.000171 1.000000 0.472925 0.156850 0.861140 1.000000 1.000000 0.636196 0.267507 0.000171 1.000000 0.472925 0.772962 0.735085 1.000000 0.163820 0.017694 1.000000 -0.245752 -0.589123 0.834875 -0.344680 0.263075 -0.778561 -0.362136 0.759952 -0.397816 -0.299516 -0.587872 -0.691117 -0.249929 -0.599138 0.849068 -0.548110 0.418342 -1.238068 -0.637827 1.204276 -0.566449 -0.600343 -0.771615 -0.731187 0.537116 0.195542 0.089587 -0.251988 0.730338 1.177868 -0.280540 0.166989 -1.267454 -0.256576 -0.925880 0.084999 1.267454 2.781773
557.000000 0.000000 119.000000 0.820000 20459.645000 8.000000 9.000000 -0.193972 0.833221 -0.517800 -0.694932 -0.488252 -0.528420 -0.692630 0.256124 0.672651 -0.276035 -0.550873 0.826908 -0.418453 0.271289 -0.795186 0.000000 0.000000 0.000000 0.000028 1.000000 0.472929 0.157222 0.861386 1.000000 1.000000 0.636075 0.267483 0.000028 1.000000 0.472929 0.772517 0.735414 1.000000 0.163648 0.017821 1.000000 -0.275660 -0.551103 0.826763 -0.418535 0.271246 -0.795494 -0.421977 0.849992 -0.428015 -0.282380 -0.582014 -0.672922 -0.280347 -0.560471 0.840818 -0.665554 0.431335 -1.264994 -0.740761 1.339936 -0.599175 -0.578342 -0.761711 -0.716104 0.562164 0.209980 0.018741 -0.333443 0.702434 1.245857 -0.330429 0.212993 -1.264597 -0.231734 -0.912414 0.120449 1.264597 2.887423
558.000000 0.000000 103.000000 1.020000 9442.605000 9.000000 9.000000 -0.194098 0.833063 -0.518007 -0.694617 -0.487966 -0.529011 -0.692966 0.255807 0.672812 -0.203443 -0.433856 0.637299 -0.298334 0.459032 -1.174463 0.000000 0.000000 0.000000 0.000657 1.000000 0.472256 0.158517 0.857139 1.000000 1.000000 0.635784 0.267012 0.000657 1.000000 0.472256 0.773240 0.738001 1.000000 0.163121 0.018679 1.000000 -0.202851 -0.434264 0.637115 -0.298382 0.458805 -1.174114 -0.389366 0.972425 -0.583058 -0.704900 -0.680346 -0.563526 -0.206300 -0.441647 0.647946 -0.474487 0.729591 -1.867075 -0.670593 1.539790 -0.869196 -1.218613 -0.956139 -0.620355 0.587643 -0.008066 0.200226 -0.395483 0.917266 1.304683 -0.607194 -0.219777 -1.504909 0.019551 -0.909200 0.615260 1.504909 3.703567
559.000000 0.000000 122.000000 0.420000 33791.585000 10.000000 9.000000 0.204013 -0.969824 0.133495 0.243120 -0.080467 -0.967418 0.949099 0.229266 0.221119 0.620361 -0.118861 -0.501501 0.806219 -0.397087 0.751244 0.000000 0.000000 0.000000 1.000000 0.082470 0.501970 0.044795 0.882180 1.000000 0.039633 1.000000 0.037244 1.000000 0.082470 0.501970 1.000000 0.282480 0.190424 1.000000 0.165003 0.305967 0.620240 -0.118611 -0.501629 0.806541 -0.397464 0.751743 -0.136972 0.655360 -0.518387 -0.660085 -0.668414 -0.676625 0.630784 -0.120628 -0.510156 1.282561 -0.632048 1.195422 0.029936 0.948672 -0.978608 -0.846088 -1.120822 -0.953127 -0.474873 0.041191 0.572333 1.088398 -0.430212 -1.477419 0.545846 -0.501361 0.905086 -0.070972 0.389021 -0.587037 1.477419 3.380753
560.000000 0.000000 125.000000 0.330000 37307.193000 11.000000 9.000000 -0.204250 0.969794 -0.133347 -0.949134 -0.229455 -0.220996 -0.243279 0.080401 0.967539 0.686972 -0.483275 -0.203698 0.681412 0.676248 -0.400765 0.000000 0.000000 0.000000 1.000000 0.081704 0.502404 0.044456 0.880979 1.000000 0.039552 1.000000 0.037148 1.000000 0.081704 0.502404 1.000000 0.283279 0.190065 1.000000 0.165237 0.306037 0.686954 -0.483445 -0.203509 0.681133 0.676388 -0.400981 -0.192267 0.635295 -0.443028 -0.699220 -0.568651 -0.570136 0.698632 -0.491664 -0.206968 1.083137 1.075592 -0.637640 -0.065981 0.921732 -0.855752 -0.867356 -0.976477 -0.789973 0.482856 -0.395361 1.367234 0.489017 0.332794 -0.551583 -0.187837 -1.072214 -0.815651 -0.295019 0.062566 0.583198 1.367234 3.060881
561.000000 0.000000 124.000000 0.300000 37704.103000 12.000000 9.000000 -0.204523 0.969740 -0.133322 -0.949024 -0.229795 -0.220647 -0.243383 0.080373 0.967476 0.640000 -0.427773 -0.212228 0.480764 0.632182 -0.334681 0.000000 0.000000 0.000000 1.000000 0.080358 0.503125 0.044755 0.879106 1.000000 0.039450 1.000000 0.036937 1.000000 0.080358 0.503125 1.000000 0.284012 0.190126 1.000000 0.165259 0.306241 0.639955 -0.427555 -0.212400 0.480508 0.632349 -0.335140 -0.215706 0.635647 -0.419941 -0.618134 -0.398778 -0.455220 0.650834 -0.434824 -0.216010 0.764103 1.005562 -0.532940 -0.130748 0.933246 -0.802499 -0.749126 -0.704011 -0.621166 0.541793 -0.279245 1.165681 0.344643 0.175628 -0.448260 -0.259516 -0.883403 -0.717421 -0.282277 0.103617 0.538761 1.165681 2.574116
562.000000 0.000000 123.000000 0.300000 32975.728000 13.000000 9.000000 -0.204571 0.969699 -0.133548 -0.948759 -0.229901 -0.220461 -0.243190 0.080637 0.966768 0.314264 -0.485307 0.171043 0.472167 0.582998 -0.297234 0.000000 0.000000 0.000000 1.000000 0.080381 0.503263 0.046427 0.877914 1.000000 0.039294 1.000000 0.036671 1.000000 0.080381 0.503263 1.000000 0.283848 0.190852 1.000000 0.164380 0.306733 0.314127 -0.485650 0.171523 0.471721 0.582901 -0.296941 -0.253022 0.610832 -0.357810 -0.270498 -0.481910 -0.494424 0.319467 -0.493906 0.174439 0.750131 0.926928 -0.472195 -0.165386 0.875475 -0.710089 -0.388725 -0.771136 -0.662043 0.404235 -0.352599 1.016715 0.259881 0.439805 -0.172674 0.054259 -0.558220 -0.844040 -0.458495 -0.087206 0.298339 1.016715 2.345044
563.000000 0.000000 122.000000 0.390000 31063.136000 14.000000 9.000000 -0.204599 0.969694 -0.133536 -0.948750 -0.229865 -0.220473 -0.243165 0.080643 0.966767 0.307392 -0.478655 0.171264 0.489481 0.573094 -0.326782 0.000000 0.000000 0.000000 1.000000 0.080463 0.503178 0.046387 0.877921 1.000000 0.039273 1.000000 0.036604 1.000000 0.080463 0.503178 1.000000 0.283941 0.190811 1.000000 0.164340 0.306704 0.307709 -0.478635 0.170926 0.489597 0.573449 -0.326760 -0.251300 0.604721 -0.353422 -0.277855 -0.515175 -0.482011 0.312940 -0.486772 0.173832 0.778557 0.911898 -0.519614 -0.166078 0.867096 -0.701018 -0.402042 -0.823620 -0.644078 0.380917 -0.363645 1.016607 0.272045 0.473186 -0.162504 0.048923 -0.586767 -0.854103 -0.429840 -0.109541 0.314722 1.016607 2.381338
564.000000 0.000000 122.000000 0.360000 29584.439000 15.000000 9.000000 -0.204655 0.969688 -0.133496 -0.948835 -0.229889 -0.220492 -0.243202 0.080509 0.966986 0.407630 -0.468628 0.060999 0.480411 0.623128 -0.347597 0.000000 0.000000 0.000000 1.000000 0.080261 0.503303 0.045877 0.878111 1.000000 0.039281 1.000000 0.036567 1.000000 0.080261 0.503303 1.000000 0.284122 0.190657 1.000000 0.164641 0.306444 0.407588 -0.468750 0.061163 0.480367 0.623058 -0.347802 -0.252233 0.655197 -0.402964 -0.381386 -0.488691 -0.472018 0.414517 -0.476719 0.062203 0.763880 0.990787 -0.553074 -0.171332 0.951343 -0.780011 -0.509810 -0.800623 -0.632632 0.456480 -0.352494 1.080185 0.271211 0.393813 -0.229892 -0.057771 -0.681476 -0.850293 -0.398709 -0.041318 0.410265 1.080185 2.493515
565.000000 0.000000 123.000000 0.510000 28827.447000 16.000000 9.000000 -0.204613 0.969699 -0.133484 -0.948849 -0.229867 -0.220481 -0.243270 0.080459 0.966954 0.403245 -0.478501 0.075256 0.430773 0.636880 -0.336283 0.000000 0.000000 0.000000 1.000000 0.080268 0.503272 0.045852 0.878047 1.000000 0.039247 1.000000 0.036735 1.000000 0.080268 0.503272 1.000000 0.284026 0.190652 1.000000 0.164881 0.306390 0.403110 -0.478654 0.075544 0.431016 0.637128 -0.336719 -0.277441 0.688357 -0.410916 -0.359270 -0.451805 -0.459032 0.409963 -0.486791 0.076828 0.685402 1.013161 -0.535450 -0.206702 1.001911 -0.795209 -0.479698 -0.740073 -0.609241 0.499906 -0.327337 1.059534 0.232291 0.362409 -0.197219 -0.074784 -0.634413 -0.862315 -0.425121 -0.035072 0.402121 1.059534 2.442405
566.000000 0.000000 121.000000 0.460000 26317.724000 17.000000 9.000000 -0.204604 0.969702 -0.133477 -0.948982 -0.229878 -0.220474 -0.243309 0.080411 0.967086 0.489922 -0.519216 0.029295 0.402098 0.662536 -0.338864 0.000000 0.000000 0.000000 1.000000 0.080136 0.503307 0.045629 0.878341 1.000000 0.039304 1.000000 0.036774 1.000000 0.080136 0.503307 1.000000 0.283949 0.190625 1.000000 0.164999 0.306302 0.489733 -0.518846 0.029113 0.402312 0.662635 -0.339063 -0.324314 0.736560 -0.412246 -0.417520 -0.414123 -0.464976 0.498058 -0.527667 0.029608 0.639756 1.053722 -0.539179 -0.261024 1.071773 -0.810749 -0.535972 -0.691502 -0.609511 0.587751 -0.272609 1.110110 0.249750 0.290054 -0.232304 -0.150183 -0.672542 -0.877805 -0.437568 -0.017445 0.422792 1.110110 2.494403
567.000000 0.000000 113.000000 0.560000 20142.350000 18.000000 9.000000 -0.204599 0.969740 -0.133206 -0.949465 -0.229867 -0.220319 -0.243505 0.080073 0.967668 0.824425 -0.605144 -0.219280 0.200575 0.712195 -0.346800 0.000000 0.000000 0.000000 1.000000 0.079218 0.503295 0.044252 0.879529 1.000000 0.039273 1.000000 0.037046 1.000000 0.079218 0.503295 1.000000 0.284032 0.190007 1.000000 0.165909 0.305652 0.824296 -0.605229 -0.219067 0.200450 0.712529 -0.346809 -0.493795 0.893009 -0.399214 -0.650743 -0.197578 -0.390119 0.838309 -0.615518 -0.222791 0.318755 1.133064 -0.551496 -0.485609 1.308593 -0.822984 -0.748111 -0.398343 -0.473395 0.925963 0.000819 1.186225 0.261082 -0.077913 -0.338176 -0.528208 -0.788471 -0.848049 -0.397755 0.077094 0.527389 1.186225 2.601087
568.000000 0.000000 114.000000 0.460000 20213.349000 19.000000 9.000000 -0.204546 0.969747 -0.133236 -0.949454 -0.230040 -0.220080 -0.243522 0.080145 0.967524 0.773436 -0.632302 -0.141134 0.077995 0.687315 -0.223831 0.000000 0.000000 0.000000 1.000000 0.078531 0.503576 0.044817 0.879209 1.000000 0.039277 1.000000 0.037146 1.000000 0.078531 0.503576 1.000000 0.283779 0.190245 1.000000 0.165707 0.305910 0.773470 -0.632778 -0.140691 0.077898 0.687310 -0.223761 -0.527301 0.883465 -0.356164 -0.533846 -0.055024 -0.396279 0.786619 -0.643536 -0.143083 0.123873 1.092960 -0.355824 -0.526197 1.286813 -0.760616 -0.597179 -0.159607 -0.474822 0.979486 0.087088 1.080628 0.188230 -0.183713 -0.284855 -0.474243 -0.575385 -0.795773 -0.505243 0.096625 0.387155 1.080628 2.364238
569.000000 0.000000 108.000000 0.990000 15256.756000 20.000000 9.000000 -0.204402 0.969762 -0.133346 -0.950017 -0.231997 -0.218743 -0.243639 0.080518 0.966982 0.848560 -1.247242 0.398681 -0.628406 0.527853 0.810044 0.000000 0.000000 0.000000 1.000000 0.072855 0.507583 0.048024 0.877854 1.000000 0.039390 1.000000 0.037451 1.000000 0.072855 0.507583 1.000000 0.282483 0.191392 1.000000 0.163907 0.307642 0.848914 -1.247438 0.398524 -0.628472 0.528298 0.809927 -0.981181 0.834769 0.146412 0.075823 1.022292 -0.810259 0.863345 -1.268644 0.405299 -0.999395 0.840099 1.287947 -0.952288 1.083170 -0.130883 0.249372 1.604295 -0.968680 1.621352 0.935413 0.805349 0.119410 -1.120800 -0.304797 -0.069196 0.746807 -0.500551 -1.552155 0.185387 -0.866217 1.621352 3.724074
570.000000 0.000000 100.000000 1.820000 11078.433000 21.000000 9.000000 -0.204237 0.969830 -0.133108 -0.950854 -0.233435 -0.218222 -0.244413 0.080377 0.966734 1.165567 -1.939466 0.773899 -1.332536 0.400496 1.562270 0.000000 0.000000 0.000000 1.000000 0.069314 0.510932 0.049010 0.876201 1.000000 0.039280 1.000000 0.038774 1.000000 0.069314 0.510932 1.000000 0.281819 0.191256 1.000000 0.164487 0.308583 1.165300 -1.939546 0.774246 -1.332640 0.400424 1.561990 -1.606494 0.950007 0.656488 0.433981 1.965701 -1.107346 1.185110 -1.972518 0.787409 -2.119164 0.636754 2.483876 -1.612309 1.129381 0.482928 0.806261 3.120010 -1.258954 2.414195 1.894287 0.683905 0.163997 -2.041544 -0.311254 -0.013468 1.716822 -0.372651 -2.400727 0.147257 -1.880820 2.414195 6.486204
571.000000 0.000000 89.000000 1.520000 13457.188000 22.000000 9.000000 0.145653 0.743865 0.652266 0.787506 0.314366 -0.531455 -0.600106 0.591505 -0.540488 0.595210 -0.123765 -0.471445 -0.302792 -0.024697 -0.947918 0.000000 0.000000 0.000000 0.290774 1.000000 0.388019 1.000000 0.004637 0.201051 0.222723 1.000000 0.047535 0.290774 1.000000 0.388019 0.283400 0.726836 1.000000 0.124085 0.011434 1.000000 0.594816 -0.123643 -0.471173 -0.302654 -0.024713 -0.947848 -0.158841 0.765926 -0.607085 0.632374 -0.014898 -0.629161 0.604928 -0.125745 -0.479183 -0.481281 -0.039298 -1.507268 -0.118693 0.888022 -0.769329 0.979661 0.069706 -1.071846 0.478734 0.510821 0.085770 0.117857 -0.023729 0.369235 -1.254408 -0.861444 -0.455006 0.775674 -0.487092 0.743587 1.254408 2.903816
572.000000 0.000000 94.000000 1.620000 14100.966000 23.000000 9.000000 -0.599237 0.590893 -0.540149 -0.786838 -0.313429 0.531006 0.146130 0.743555 0.650891 -0.466479 -0.124099 0.590578 1.204089 -0.107785 0.261267 0.000000 0.000000 0.000000 0.291634 1.000000 0.389413 1.000000 0.002489 0.203012 0.223238 1.000000 0.046707 0.291634 1.000000 0.389413 0.284803 0.731278 1.000000 0.123195 0.011272 1.000000 -0.467255 -0.123683 0.590938 1.205616 -0.108009 0.261378 -0.243867 0.801900 -0.558033 0.851232 0.008043 -0.770254 -0.475199 -0.125785 0.600984 1.917170 -0.171756 0.415643 -0.254847 0.947580 -0.692733 1.328800 0.105235 -1.296557 -0.995448 -0.855210 0.569915 0.710153 1.052346 -0.513017 1.391717 -0.173646 -0.056898 -0.396269 -0.197136 -0.536507 1.391717 3.540852
573.000000 0.000000 99.000000 1.490000 14809.251000 24.000000 9.000000 -0.598932 0.591071 -0.540292 -0.787194 -0.313014 0.531017 0.146520 0.743240 0.651331 -0.378005 -0.191573 0.569578 1.059485 0.179057 0.221385 0.000000 0.000000 0.000000 0.292942 1.000000 0.390661 1.000000 0.003460 0.203180 0.224137 1.000000 0.046527 0.292942 1.000000 0.390661 0.283772 0.734174 1.000000 0.123287 0.011451 1.000000 -0.378229 -0.191744 0.569973 1.060384 0.179226 0.221490 -0.309700 0.810974 -0.501274 0.527529 0.025036 -0.822552 -0.384659 -0.195004 0.579663 1.686223 0.285005 0.352213 -0.353585 0.973689 -0.620104 0.820730 0.089282 -1.378132 -0.649471 -0.882177 0.727324 0.494619 0.938290 -0.438506 1.225871 -0.150924 -0.288819 -0.576400 -0.056113 -0.343694 1.225871 3.151013
574.000000 0.000000 100.000000 2.190000 14447.732000 25.000000 9.000000 0.982436 -0.175069 -0.064572 -0.049958 0.106697 -0.995595 0.181223 0.976392 0.097684 0.134009 -2.405494 2.271485 1.066500 -0.396344 1.726763 0.000000 0.000000 0.000000 1.000000 0.238679 0.099312 0.486760 1.000000 0.580263 0.386136 1.000000 0.149622 1.000000 0.238679 0.099312 1.000000 0.119124 0.231438 1.000000 0.044189 0.131835 0.133995 -2.405499 2.271504 1.066427 -0.396206 1.726527 -0.129889 0.256947 -0.127058 -2.385336 -1.652848 -1.133995 0.136273 -2.446392 2.310120 1.695832 -0.630047 2.745523 -0.320207 -0.028522 0.348730 -2.570800 -2.445331 -1.944118 0.104833 0.619264 1.489474 2.003905 0.458935 -0.925706 2.700645 1.316004 -0.563768 -2.805477 -1.078199 -3.319908 3.319908 7.031514
575.000000 0.000000 107.000000 0.670000 20644.397000 26.000000 9.000000 0.180955 0.978973 0.094165 -0.983084 0.174450 0.066125 0.049700 -0.105553 0.994265 0.572561 -0.056991 -0.515570 0.763269 0.358025 0.443701 0.000000 0.000000 0.000000 1.000000 0.232726 0.104215 0.470558 1.000000 0.571452 0.385814 1.000000 0.149727 1.000000 0.232726 0.104215 1.000000 0.124128 0.224787 1.000000 0.043017 0.130557 0.571606 -0.057073 -0.514532 0.761475 0.357454 0.442721 -0.262366 0.814749 -0.552382 -0.345043 -0.423217 -0.619621 0.581323 -0.058044 -0.523279 1.210898 0.568423 0.704014 -0.395545 1.172838 -0.777293 -0.264858 -0.626085 -1.030704 -0.001269 -0.465385 0.987425 0.523310 -0.244018 -1.232712 0.330808 -0.657886 0.245287 -0.329539 0.709402 0.134577 1.232712 2.788859
576.000000 0.000000 112.000000 0.660000 22124.320000 27.000000 9.000000 0.181085 0.979003 0.093600 -0.982796 0.174357 0.066125 0.049933 -0.105133 0.993714 0.279736 -0.051275 -0.228461 0.848277 0.437183 0.543883 0.000000 0.000000 0.000000 1.000000 0.232266 0.104502 0.468130 1.000000 0.571667 0.385279 1.000000 0.149483 1.000000 0.232266 0.104502 1.000000 0.125330 0.223789 1.000000 0.041989 0.130846 0.279218 -0.050775 -0.228443 0.846507 0.436365 0.542525 -0.307618 0.828484 -0.520866 -0.057736 -0.387930 -0.766618 0.283965 -0.051639 -0.232326 1.346115 0.693907 0.862723 -0.465949 1.253912 -0.787963 0.040671 -0.593708 -1.243855 -0.129253 -0.695826 0.969845 0.403272 -0.013431 -1.112529 0.690980 -0.408118 0.142684 -0.561726 0.709257 0.004846 1.112529 3.052767
577.000000 0.000000 112.000000 0.660000 23409.723000 28.000000 9.000000 0.181231 0.978990 0.093456 -0.982663 0.174521 0.066142 0.049976 -0.105036 0.993514 0.176984 -0.052566 -0.124418 0.865061 0.462760 0.528281 0.000000 0.000000 0.000000 1.000000 0.232542 0.104603 0.467496 1.000000 0.572112 0.385336 1.000000 0.149633 1.000000 0.232542 0.104603 1.000000 0.125843 0.223606 1.000000 0.041729 0.130916 0.176570 -0.052239 -0.124331 0.863060 0.461708 0.527214 -0.308085 0.815458 -0.507373 0.049938 -0.391989 -0.771931 0.179572 -0.053127 -0.126445 1.372438 0.734208 0.838376 -0.464131 1.253347 -0.789216 0.157736 -0.608463 -1.245537 -0.165557 -0.765035 0.955034 0.355555 0.093099 -1.027492 0.777630 -0.342960 0.072458 -0.612073 0.671937 -0.012595 1.027492 3.074598
578.000000 0.000000 107.000000 0.710000 19298.502000 29.000000 9.000000 0.181395 0.978986 0.093178 -0.982455 0.174667 0.066606 0.050483 -0.104887 0.993318 0.065851 -0.015505 -0.050345 0.880182 0.487094 0.506767 0.000000 0.000000 0.000000 1.000000 0.232056 0.105710 0.467002 1.000000 0.573847 0.384786 1.000000 0.148775 1.000000 0.232056 0.105710 1.000000 0.126424 0.223302 1.000000 0.040544 0.131836 0.065708 -0.015158 -0.050550 0.878044 0.485854 0.505603 -0.270078 0.786101 -0.516024 0.147545 -0.396412 -0.780193 0.066825 -0.015416 -0.051409 1.396266 0.772605 0.804010 -0.422246 1.234611 -0.812365 0.264936 -0.624865 -1.246871 -0.221033 -0.851863 0.919013 0.288183 0.193519 -0.946527 0.849990 -0.290056 0.027515 -0.628956 0.658344 0.001873 0.946527 3.096731
579.000000 0.000000 86.000000 1.060000 10461.049000 30.000000 9.000000 0.182191 0.978854 0.093015 -0.981673 0.174716 0.067285 0.050846 -0.104420 0.992439 -0.474521 0.159661 0.314860 0.693485 0.320739 0.789356 0.000000 0.000000 0.000000 1.000000 0.231026 0.107311 0.466217 1.000000 0.577760 0.385228 1.000000 0.149281 1.000000 0.231026 0.107311 1.000000 0.127936 0.223789 1.000000 0.039051 0.132525 -0.473562 0.159392 0.314170 0.692394 0.319861 0.787446 -0.203693 0.446253 -0.242560 0.435296 -0.033456 -1.017665 -0.481612 0.162101 0.319511 1.101046 0.508643 1.252197 -0.403661 0.828805 -0.425144 0.487296 -0.093486 -1.567696 -0.504642 -0.919947 0.394358 -0.020947 0.265350 -0.633650 1.287764 0.388764 0.239292 -0.783122 0.654597 -0.367817 1.287764 3.107655
580.000000 0.000000 109.000000 0.340000 21039.203000 31.000000 9.000000 0.178212 0.982455 0.054975 -0.068482 0.068524 -0.995833 -0.982269 0.173004 0.078036 0.323137 -0.209914 -0.113223 -0.705131 0.396922 -0.186257 0.000000 0.000000 0.000000 1.000000 0.194201 0.144584 0.351776 1.000000 0.558367 0.284470 1.000000 0.115352 1.000000 0.194201 0.144584 1.000000 0.184758 0.145241 1.000000 0.037086 0.104828 0.323334 -0.210173 -0.113161 -0.704932 0.396641 -0.186118 -0.326470 0.562474 -0.236004 -0.171025 -0.366347 -0.605696 0.328831 -0.213746 -0.115085 -1.120983 0.630739 -0.295964 -0.461917 0.823026 -0.361109 -0.129419 -0.553401 -0.995987 0.936644 0.421648 0.021365 -0.493631 -0.518041 0.397238 -0.759695 0.155585 -0.418603 -0.176949 0.096393 0.338047 0.936644 2.340231
581.000000 0.000000 102.000000 0.690000 17569.251000 32.000000 9.000000 0.178873 0.982353 0.054646 -0.982114 0.173299 0.078059 0.069137 -0.068403 0.995284 0.120085 -0.215172 0.095087 1.031750 0.221586 0.583687 0.000000 0.000000 0.000000 1.000000 0.194647 0.144858 0.350943 1.000000 0.561879 0.284457 1.000000 0.115013 1.000000 0.194647 0.144858 1.000000 0.186469 0.144864 1.000000 0.038542 0.104416 0.120502 -0.215234 0.094732 1.031460 0.221624 0.583701 -0.541403 0.697819 -0.156415 0.091609 -0.482716 -0.919222 0.122550 -0.218892 0.096342 1.640227 0.352426 0.928201 -0.744498 1.052217 -0.307719 0.150904 -0.757362 -1.495921 -0.386349 -0.674104 0.952891 0.665136 0.279984 -1.059256 1.037857 -0.301383 0.106365 -0.651508 0.394120 -0.363753 1.059256 3.337160
582.000000 0.000000 102.000000 0.520000 15732.958000 33.000000 9.000000 0.178435 0.982415 0.054966 -0.981932 0.173103 0.078556 0.068924 -0.068667 0.995431 0.112503 -0.049785 -0.062718 0.683731 0.223958 0.417356 0.000000 0.000000 0.000000 1.000000 0.193570 0.145760 0.351974 1.000000 0.560506 0.284905 1.000000 0.114751 1.000000 0.193570 0.145760 1.000000 0.185015 0.145560 1.000000 0.037795 0.104983 0.112560 -0.050214 -0.062346 0.683684 0.223581 0.417242 -0.277690 0.522313 -0.244624 0.003191 -0.300848 -0.636899 0.114474 -0.051068 -0.063406 1.087194 0.355539 0.663498 -0.415711 0.803780 -0.388069 0.051695 -0.468259 -1.025582 -0.231115 -0.521411 0.656575 0.366279 0.100354 -0.787336 0.642098 -0.245592 0.130760 -0.410983 0.421057 -0.120687 0.787336 2.296842
583.000000 0.000000 101.000000 1.740000 13311.812000 34.000000 9.000000 0.180289 0.982184 0.053018 -0.977538 0.174019 0.078980 0.071933 -0.065623 0.989983 -3.081291 0.896382 2.184909 1.799820 -0.504388 0.569171 0.000000 0.000000 0.000000 1.000000 0.193279 0.148278 0.339798 1.000000 0.572187 0.284180 1.000000 0.111947 1.000000 0.193279 0.148278 1.000000 0.192283 0.143260 1.000000 0.047997 0.098379 -3.081807 0.896752 2.185055 1.799888 -0.504143 0.569363 0.307291 -1.017828 0.710537 2.452210 -0.656610 -2.023341 -3.134198 0.911997 2.222201 2.862182 -0.801688 0.905402 0.043929 -0.979667 0.935737 2.488833 -1.328748 -2.927900 -3.147621 -2.493046 -0.810659 -0.156083 2.985593 0.648631 3.724850 1.387888 0.162028 -0.577229 -0.492548 -1.231805 3.724850 7.235558
584.000000 0.000000 93.000000 3.290000 11809.574000 35.000000 9.000000 0.182555 0.981904 0.050381 -0.978421 0.174965 0.088033 0.079191 -0.066073 0.991504 -1.774528 0.396175 1.378353 0.885824 0.237861 1.196551 0.000000 0.000000 0.000000 1.000000 0.180271 0.168570 0.346047 1.000000 0.599979 0.277152 1.000000 0.101227 1.000000 0.180271 0.168570 1.000000 0.197354 0.141507 1.000000 0.061134 0.097441 -1.774659 0.395906 1.378753 0.886240 0.237428 1.196408 -0.222523 0.178551 0.043972 1.479215 0.301001 -1.598874 -1.804828 0.402637 1.402192 1.409298 0.377558 1.902529 -0.543920 0.629124 -0.085204 1.506784 0.309816 -2.392756 -1.322400 -1.630675 -0.171713 -0.479988 1.107900 -0.042787 2.661308 1.510621 0.214500 -1.338908 0.522775 -1.030633 2.661308 5.032232
585.000000 0.000000 85.000000 0.880000 10475.023000 36.000000 9.000000 0.181809 0.981993 0.051329 -0.979586 0.175198 0.089294 0.079491 -0.067446 0.993948 -0.490321 0.381558 0.108762 0.466276 0.381501 0.736996 0.000000 0.000000 0.000000 1.000000 0.179515 0.170514 0.353067 1.000000 0.600328 0.276529 1.000000 0.099445 1.000000 0.179515 0.170514 1.000000 0.193655 0.143271 1.000000 0.059762 0.099962 -0.490116 0.381556 0.108560 0.466507 0.381626 0.737125 0.028882 0.429594 -0.458476 0.336189 0.164674 -0.876059 -0.498448 0.388042 0.110405 0.741839 0.606862 1.172177 -0.155525 0.827116 -0.671591 0.376422 0.218578 -1.314941 -0.417012 -0.912513 0.188697 -0.306804 0.072878 -0.532830 1.029957 0.424248 0.344134 -0.612945 0.839634 -0.117444 1.029957 2.737633
586.000000 0.000000 38.000000 4.560000 5050.335000 37.000000 9.000000 -0.055750 -0.967392 0.247072 0.997067 -0.025366 0.095448 -0.084923 0.247180 0.970900 2.486636 0.503120 -2.989756 -0.852175 -2.724748 3.722752 0.000000 0.000000 0.000000 1.000000 0.058545 0.091355 0.284330 1.000000 0.080124 0.345796 1.000000 0.240169 1.000000 0.058545 0.091355 1.000000 0.426560 0.079242 1.000000 0.290746 0.230248 2.486691 0.502925 -2.989616 -0.852237 -2.724925 3.722745 0.249105 1.252208 -1.501313 -3.589090 2.850037 -2.598317 2.528965 0.511475 -3.040439 -1.355227 -4.333176 5.919910 0.119527 2.622247 -2.741774 -4.226105 4.477785 -4.300552 -0.392106 3.145918 -1.498644 2.039379 -5.243762 -4.137223 -0.410176 0.696363 5.635867 0.802281 2.097844 -2.735742 5.635867 13.814032
587.000000 0.000000 92.000000 0.870000 9865.708000 38.000000 9.000000 -0.184611 -0.980089 -0.073111 -0.981129 0.178824 0.063580 -0.049831 0.084735 -0.994406 -0.476138 0.205850 0.270288 -0.410076 0.574497 -0.609119 0.000000 0.000000 0.000000 1.000000 0.237545 0.106930 0.396568 1.000000 0.554364 0.339913 1.000000 0.160375 1.000000 0.237545 0.106930 1.000000 0.170770 0.180970 1.000000 0.014971 0.121347 -0.476488 0.206316 0.270173 -0.410371 0.574594 -0.608989 -0.065569 0.577108 -0.511539 0.478256 0.148986 -0.700208 -0.484589 0.209823 0.274766 -0.652572 0.913719 -0.968414 -0.209444 1.037016 -0.827572 0.564190 0.194271 -1.057170 0.355943 -0.390105 -0.176880 -0.922928 0.438947 0.971770 -0.351760 0.181063 -0.794890 -0.004184 -0.048842 0.741865 0.971770 2.669681
588.000000 0.000000 99.000000 0.800000 10230.474000 39.000000 9.000000 0.187119 0.979497 0.074649 -0.981379 0.181230 0.061301 0.048613 -0.085821 0.995347 0.025229 0.173278 -0.198506 1.122504 0.333367 0.772988 0.000000 0.000000 0.000000 1.000000 0.247283 0.101253 0.402532 1.000000 0.562159 0.343816 1.000000 0.166911 1.000000 0.247283 0.101253 1.000000 0.173660 0.184095 1.000000 0.018048 0.119910 0.025110 0.172997 -0.198107 1.122343 0.333257 0.773154 -0.215744 0.715123 -0.499379 0.001628 -0.437554 -1.186703 0.025537 0.175938 -0.201475 1.784750 0.529945 1.229469 -0.438815 1.162208 -0.723393 0.063648 -0.696347 -1.868589 -0.573673 -1.006371 0.883569 0.450871 0.134015 -1.323227 1.137873 -0.319369 0.439658 -0.564200 0.872356 -0.131501 1.323227 3.878350
589.000000 0.000000 111.000000 0.460000 20287.197000 40.000000 9.000000 0.187281 0.979459 0.074744 -0.981347 0.182090 0.060973 0.047563 -0.085760 0.995012 -0.069547 -0.027308 0.096855 0.811701 0.360521 0.441296 0.000000 0.000000 0.000000 1.000000 0.249712 0.100514 0.401352 1.000000 0.559696 0.345329 1.000000 0.169517 1.000000 0.249712 0.100514 1.000000 0.174030 0.184323 1.000000 0.019761 0.117970 -0.069895 -0.027041 0.096936 0.811796 0.360626 0.440918 -0.258992 0.611133 -0.352141 0.212369 -0.357615 -0.731921 -0.071083 -0.027501 0.098584 1.290917 0.573468 0.701148 -0.395655 0.979589 -0.583934 0.293143 -0.574062 -1.162182 -0.310690 -0.778924 0.743340 0.275105 0.310039 -0.743991 0.882524 -0.171506 0.000651 -0.571834 0.468886 -0.103599 0.882524 2.735712
590.000000 0.000000 108.000000 0.490000 19804.386000 41.000000 9.000000 0.187884 0.979365 0.074460 -0.980855 0.182496 0.060854 0.047262 -0.085487 0.994262 -0.469960 -0.011648 0.481608 0.728042 0.406706 0.513747 0.000000 0.000000 0.000000 1.000000 0.250671 0.100435 0.399563 1.000000 0.560569 0.346259 1.000000 0.171240 1.000000 0.250671 0.100435 1.000000 0.175828 0.184071 1.000000 0.019801 0.117422 -0.469974 -0.011475 0.481449 0.728411 0.406747 0.513850 -0.275310 0.529617 -0.254307 0.569376 -0.185725 -0.785686 -0.477963 -0.011670 0.489634 1.158318 0.646809 0.817124 -0.422671 0.923306 -0.500635 0.652771 -0.334359 -1.217835 -0.399186 -0.927303 0.546577 0.018460 0.534312 -0.411451 1.201491 0.255728 -0.135126 -0.802305 0.392992 -0.274187 1.201491 2.825908
591.000000 0.000000 106.000000 0.450000 16809.650000 42.000000 9.000000 0.188194 0.979226 0.075488 -0.981069 0.183096 0.060057 0.046537 -0.086137 0.994964 -0.139401 0.048124 0.091277 0.837093 0.241232 0.403319 0.000000 0.000000 0.000000 1.000000 0.253735 0.098206 0.403030 1.000000 0.561218 0.347950 1.000000 0.173273 1.000000 0.253735 0.098206 1.000000 0.174951 0.185931 1.000000 0.021856 0.116419 -0.138875 0.047940 0.090935 0.836940 0.241668 0.403231 -0.179067 0.453002 -0.273934 0.209394 -0.401304 -0.758515 -0.141236 0.048755 0.092481 1.330902 0.384300 0.641218 -0.308524 0.753147 -0.444623 0.272535 -0.650557 -1.190812 -0.464012 -0.777792 0.622665 0.308885 0.376977 -0.709700 0.900529 -0.186148 0.087035 -0.436517 0.400815 -0.122737 0.900529 2.652689
592.000000 0.000000 111.000000 0.410000 20835.404000 43.000000 9.000000 0.188406 0.979174 0.075644 -0.981137 0.183687 0.059632 0.046074 -0.086230 0.995051 -0.065068 -0.027157 0.092225 0.853994 0.242694 0.240466 0.000000 0.000000 0.000000 1.000000 0.255802 0.097194 0.403174 1.000000 0.560827 0.348657 1.000000 0.174649 1.000000 0.255802 0.097194 1.000000 0.175276 0.186163 1.000000 0.022739 0.115626 -0.065260 -0.027104 0.092364 0.853979 0.242446 0.240312 -0.189845 0.455638 -0.265793 0.205080 -0.517060 -0.621303 -0.066369 -0.027565 0.093934 1.357998 0.385537 0.382143 -0.285727 0.731522 -0.445795 0.284012 -0.827157 -0.986521 -0.412847 -0.727637 0.695953 0.381164 0.463834 -0.644966 0.775853 -0.332947 -0.050988 -0.363006 0.263802 -0.048217 0.775853 2.537217
593.000000 0.000000 115.000000 0.710000 26052.868000 44.000000 9.000000 0.188850 0.979090 0.075624 -0.981148 0.184134 0.059558 0.045924 -0.086298 0.995079 -0.026658 -0.077468 0.104126 0.841937 0.284824 0.251512 0.000000 0.000000 0.000000 1.000000 0.256954 0.097020 0.403406 1.000000 0.562039 0.349098 1.000000 0.175705 1.000000 0.256954 0.097020 1.000000 0.176200 0.186251 1.000000 0.023007 0.115436 -0.026727 -0.077265 0.103993 0.842038 0.284951 0.251467 -0.238986 0.522457 -0.283470 0.204340 -0.503072 -0.601797 -0.027182 -0.078579 0.105761 1.339009 0.453130 0.399884 -0.336995 0.822420 -0.485425 0.289418 -0.800772 -0.964075 -0.340676 -0.710655 0.752621 0.382642 0.437670 -0.655627 0.764173 -0.329123 -0.096994 -0.423498 0.272985 -0.053519 0.764173 2.549841
594.000000 0.000000 118.000000 0.600000 29551.041000 45.000000 9.000000 0.189246 0.979004 0.075745 -0.981228 0.184367 0.059584 0.045768 -0.086465 0.995294 0.088239 -0.085344 -0.002895 0.773206 0.300437 0.342776 0.000000 0.000000 0.000000 1.000000 0.257540 0.096994 0.404430 1.000000 0.563374 0.349527 1.000000 0.176683 1.000000 0.257540 0.096994 1.000000 0.176747 0.186623 1.000000 0.023439 0.115274 0.088277 -0.085719 -0.002558 0.772995 0.300288 0.342471 -0.270302 0.586636 -0.316333 0.085079 -0.412766 -0.613436 0.089778 -0.087176 -0.002602 1.229216 0.477518 0.544598 -0.384348 0.902636 -0.518288 0.158428 -0.647428 -0.991769 -0.234638 -0.624530 0.769013 0.379121 0.241780 -0.761870 0.686443 -0.317208 -0.007142 -0.451805 0.382750 -0.061913 0.769013 2.475934
595.000000 0.000000 116.000000 0.580000 29048.432000 46.000000 9.000000 0.189421 0.978958 0.075904 -0.981106 0.184316 0.059617 0.045680 -0.086751 0.995139 0.001796 -0.045486 0.043690 0.739863 0.369746 0.440178 0.000000 0.000000 0.000000 1.000000 0.257459 0.097016 0.405095 1.000000 0.564132 0.350444 1.000000 0.177126 1.000000 0.257459 0.097016 1.000000 0.176807 0.187078 1.000000 0.023924 0.115292 0.001505 -0.045587 0.044083 0.739688 0.369585 0.440149 -0.266514 0.632486 -0.365972 0.149678 -0.309973 -0.677115 0.001530 -0.046362 0.044832 1.176251 0.587714 0.699925 -0.398748 0.997775 -0.599027 0.226224 -0.491935 -1.082163 -0.220717 -0.700584 0.739688 0.259822 0.212138 -0.748268 0.783624 -0.176782 0.008580 -0.562906 0.488446 -0.083040 0.783624 2.581249
596.000000 0.000000 111.000000 0.330000 27346.215000 47.000000 9.000000 0.189698 0.978901 0.075939 -0.981074 0.184755 0.059483 0.045586 -0.086853 0.994973 -0.038144 -0.126414 0.164558 0.792840 0.408396 0.367564 0.000000 0.000000 0.000000 1.000000 0.258685 0.096709 0.405047 1.000000 0.564834 0.351092 1.000000 0.177761 1.000000 0.258685 0.096709 1.000000 0.177312 0.187236 1.000000 0.024150 0.115202 -0.037847 -0.126981 0.164828 0.793146 0.408580 0.367503 -0.323370 0.670551 -0.347181 0.255387 -0.384678 -0.634719 -0.038491 -0.129139 0.167630 1.261260 0.649723 0.584403 -0.443610 1.051510 -0.607900 0.350975 -0.612446 -1.021419 -0.212652 -0.743148 0.817163 0.286666 0.360474 -0.669340 0.837638 -0.192177 -0.147822 -0.624986 0.382674 -0.094489 0.837638 2.670715
597.000000 0.000000 111.000000 0.320000 26221.589000 48.000000 9.000000 0.189745 0.978889 0.075978 -0.980860 0.184774 0.059588 0.045732 -0.086836 0.994991 -0.097258 0.014148 0.083110 0.806703 0.364564 0.356872 0.000000 0.000000 0.000000 1.000000 0.258580 0.096916 0.405325 1.000000 0.565627 0.350991 1.000000 0.177544 1.000000 0.258580 0.096916 1.000000 0.177348 0.187385 1.000000 0.023836 0.115490 -0.097025 0.014272 0.082753 0.806481 0.364688 0.357001 -0.188047 0.570103 -0.382056 0.230889 -0.393495 -0.676587 -0.098674 0.014514 0.084160 1.282467 0.579926 0.567703 -0.305014 0.926256 -0.621242 0.319664 -0.634086 -1.067297 -0.333020 -0.806528 0.714110 0.240602 0.366443 -0.680687 0.829970 -0.217159 -0.033423 -0.496950 0.440085 -0.023443 0.829970 2.633535
598.000000 0.000000 108.000000 0.460000 21103.232000 49.000000 9.000000 0.189662 0.978919 0.075807 -0.980681 0.184660 0.059759 0.045688 -0.086600 0.994994 -0.165779 0.131640 0.034139 0.669136 0.341374 0.350755 0.000000 0.000000 0.000000 1.000000 0.257968 0.097360 0.404701 1.000000 0.565104 0.350522 1.000000 0.177593 1.000000 0.257968 0.097360 1.000000 0.177518 0.187073 1.000000 0.023619 0.115307 -0.166023 0.132079 0.033944 0.668998 0.341405 0.350958 -0.062986 0.462265 -0.399278 0.216391 -0.274962 -0.631981 -0.168845 0.134325 0.034521 1.063841 0.542902 0.558094 -0.169647 0.787000 -0.617353 0.292564 -0.453571 -0.977693 -0.336441 -0.779719 0.532181 0.088904 0.289494 -0.579128 0.745176 -0.123447 0.046947 -0.408735 0.490224 0.034542 0.779719 2.299027
599.000000 0.000000 102.000000 0.590000 15622.345000 50.000000 9.000000 0.189717 0.978919 0.075659 -0.980757 0.184837 0.059974 0.045963 -0.086667 0.995069 -0.094605 0.082654 0.011951 0.709821 0.417686 0.294856 0.000000 0.000000 0.000000 1.000000 0.257995 0.097869 0.404770 1.000000 0.565922 0.350216 1.000000 0.177038 1.000000 0.257995 0.097869 1.000000 0.177759 0.186836 1.000000 0.023196 0.115834 -0.094425 0.082779 0.011646 0.710045 0.417550 0.294823 -0.089893 0.561449 -0.471555 0.212401 -0.340948 -0.582400 -0.096031 0.084187 0.011844 1.129113 0.663989 0.468827 -0.186676 0.923630 -0.736954 0.310564 -0.551608 -0.909703 -0.263460 -0.805604 0.658457 0.116313 0.313600 -0.608317 0.696396 -0.225521 -0.050140 -0.432936 0.492004 0.109208 0.805604 2.414830
600.000000 0.000000 93.000000 3.860000 9691.738000 51.000000 9.000000 0.186901 0.979551 0.074482 -0.974151 0.185306 0.057404 0.045311 -0.082047 0.986660 -5.243612 1.518130 3.725482 1.386274 -0.813391 -1.888712 0.000000 0.000000 0.000000 1.000000 0.261416 0.093609 0.380508 1.000000 0.549343 0.352572 1.000000 0.175052 1.000000 0.261416 0.093609 1.000000 0.176608 0.184299 1.000000 0.018208 0.112758 -5.243682 1.517803 3.725879 1.386372 -0.813452 -1.888726 1.844234 -3.043085 1.198851 4.322702 -1.433619 -0.449043 -5.332824 1.543606 3.789219 2.204609 -1.293551 -3.003452 2.200713 -3.670002 1.469288 4.507584 -2.750484 -0.159213 -4.235409 -3.179229 -2.435353 -1.379173 5.850240 4.050185 3.397932 1.597877 -1.614831 0.837477 -2.671012 -0.218704 5.850240 10.697325
601.000000 0.000000 112.000000 0.530000 17339.887000 52.000000 9.000000 0.191127 0.978412 0.078617 -0.980742 0.186052 0.063464 0.048449 -0.090239 0.995355 0.286415 0.037902 -0.324317 0.567093 0.389163 0.210759 0.000000 0.000000 0.000000 1.000000 0.256777 0.104064 0.420229 1.000000 0.583584 0.356358 1.000000 0.172827 1.000000 0.256777 0.104064 1.000000 0.173376 0.194941 1.000000 0.022916 0.122294 0.286404 0.037902 -0.324306 0.567119 0.389356 0.211046 -0.079498 0.616021 -0.536523 -0.123962 -0.334251 -0.384918 0.291273 0.038547 -0.329819 0.901832 0.619154 0.335605 -0.152839 0.934112 -0.781273 -0.035249 -0.507848 -0.628115 -0.012228 -0.517765 0.724115 0.218578 -0.022398 -0.758741 0.251622 -0.484721 0.034626 -0.239394 0.540164 0.266143 0.758741 2.054389
602.000000 0.000000 112.000000 0.450000 19870.256000 53.000000 9.000000 0.191079 0.978429 0.078521 -0.980627 0.186288 0.063221 0.048334 -0.090124 0.995357 0.253496 0.089647 -0.343143 0.628798 0.393533 0.072027 0.000000 0.000000 0.000000 1.000000 0.257637 0.103570 0.419559 1.000000 0.582931 0.356210 1.000000 0.173062 1.000000 0.257637 0.103570 1.000000 0.173610 0.194632 1.000000 0.022953 0.122026 0.253661 0.089479 -0.343140 0.628736 0.393569 0.072206 0.015128 0.566600 -0.581728 -0.088184 -0.452424 -0.328888 0.257973 0.091000 -0.348973 0.999816 0.625853 0.114822 -0.030087 0.870106 -0.840019 0.018549 -0.699411 -0.530551 -0.084503 -0.595510 0.731843 0.220836 0.113512 -0.702834 0.207264 -0.609082 -0.029009 -0.122761 0.481998 0.388246 0.731843 2.123310
603.000000 0.000000 104.000000 0.650000 13626.350000 54.000000 9.000000 0.190539 0.978528 0.078599 -0.980717 0.186349 0.063426 0.048334 -0.090005 0.995525 0.343188 0.066671 -0.409858 0.515124 0.307308 -0.233595 0.000000 0.000000 0.000000 1.000000 0.257434 0.103961 0.419346 1.000000 0.580921 0.355653 1.000000 0.172199 1.000000 0.257434 0.103961 1.000000 0.172375 0.194635 1.000000 0.022878 0.121872 0.343337 0.066345 -0.409681 0.515155 0.307112 -0.233602 0.119722 0.408689 -0.528411 -0.152032 -0.552069 -0.033902 0.349173 0.067472 -0.416646 0.819199 0.488369 -0.371475 0.147196 0.598974 -0.746170 -0.041921 -0.849862 -0.070668 -0.020057 -0.418809 0.648817 0.250065 0.173446 -0.495427 -0.129862 -0.798735 -0.153389 0.149919 0.245362 0.548670 0.798735 1.895484
604.000000 0.000000 84.000000 1.090000 6626.990000 55.000000 9.000000 0.190585 0.978549 0.078227 -0.980472 0.186382 0.063993 0.049055 -0.089702 0.994967 0.095060 0.016054 -0.111114 0.572322 0.297160 -0.263255 0.000000 0.000000 0.000000 1.000000 0.256425 0.105399 0.417955 1.000000 0.582407 0.355021 1.000000 0.170660 1.000000 0.256425 0.105399 1.000000 0.172820 0.194191 1.000000 0.021161 0.123073 0.095029 0.016155 -0.111184 0.572203 0.297262 -0.262940 0.067814 0.339549 -0.407363 0.109088 -0.580215 -0.065401 0.096644 0.016430 -0.113074 0.909918 0.472706 -0.418127 0.097102 0.525520 -0.622622 0.228184 -0.914811 -0.108872 -0.145743 -0.531707 0.597202 0.211238 0.456555 -0.286390 0.115156 -0.627789 -0.310812 0.030588 0.075152 0.416551 0.627789 1.926731
605.000000 0.000000 104.000000 0.510000 13321.440000 56.000000 9.000000 -0.186408 -0.980874 -0.056014 0.059631 -0.068865 0.996901 -0.981469 0.181833 0.069842 0.554776 -0.497942 -0.056834 0.709278 -0.342717 -0.295598 0.000000 0.000000 0.000000 1.000000 0.227092 0.126965 0.352223 1.000000 0.564372 0.294720 1.000000 0.146052 1.000000 0.227092 0.126965 1.000000 0.202375 0.147195 1.000000 0.022287 0.106226 0.554822 -0.498181 -0.056642 0.709558 -0.343142 -0.295754 -0.236672 0.697351 -0.460679 -0.381497 -0.423875 -0.534622 0.564254 -0.506650 -0.057605 1.128338 -0.545664 -0.470308 -0.355128 1.011239 -0.656112 -0.324488 -0.623934 -0.892803 -0.246214 0.199319 0.675071 1.120604 0.398772 -0.522513 0.014767 -0.906518 -0.152558 0.231447 -0.598091 -0.214086 1.120604 2.498770
606.000000 0.000000 103.000000 0.560000 14050.374000 57.000000 9.000000 0.186882 0.980799 0.055747 -0.981568 0.181704 0.069896 0.059800 -0.068695 0.996956 0.598563 -0.089399 -0.509164 0.746086 0.311741 0.662304 0.000000 0.000000 0.000000 1.000000 0.226661 0.127178 0.352086 1.000000 0.566195 0.294257 1.000000 0.146480 1.000000 0.226661 0.127178 1.000000 0.203699 0.146792 1.000000 0.022817 0.105892 0.598704 -0.089664 -0.509039 0.746174 0.311869 0.662453 -0.389167 0.836528 -0.447361 -0.446850 -0.278856 -0.776253 0.608882 -0.091189 -0.517693 1.186566 0.495934 1.053432 -0.580195 1.219758 -0.639563 -0.414042 -0.388833 -1.283659 0.003853 -0.401075 0.972680 0.567752 -0.405570 -1.374398 0.454554 -0.514274 0.401717 -0.458407 0.806646 -0.053478 1.374398 3.043258
606.000000 1.000000 97.000000 0.730000 10807.922000 58.000000 9.000000 0.187159 0.980795 0.054895 -0.981451 0.182107 0.069744 0.059680 -0.067923 0.996358 0.362918 -0.273009 -0.089909 0.725213 0.377707 0.624388 0.000000 0.000000 0.000000 1.000000 0.227359 0.127289 0.348538 1.000000 0.565332 0.293474 1.000000 0.147304 1.000000 0.227359 0.127289 1.000000 0.205840 0.145118 1.000000 0.023612 0.104426 0.362751 -0.272887 -0.089864 0.725011 0.377474 0.624331 -0.554459 0.873754 -0.319294 -0.115185 -0.240795 -0.712266 0.368918 -0.277526 -0.091392 1.152913 0.600259 0.992811 -0.738258 1.283738 -0.545480 -0.064305 -0.348126 -1.189674 0.038290 -0.451820 0.979639 0.489530 -0.122560 -1.063909 0.688067 -0.253282 0.084270 -0.726357 0.574379 -0.236248 1.063909 2.890984
607.000000 0.000000 90.000000 3.560000 6128.780000 59.000000 9.000000 0.192259 0.979859 0.053968 -0.982778 0.181557 0.071386 0.062786 -0.068453 0.996741 1.019230 -0.952995 -0.066235 1.483397 0.614693 3.585826 0.000000 0.000000 0.000000 1.000000 0.223748 0.131129 0.354299 1.000000 0.591353 0.292559 1.000000 0.148547 1.000000 0.223748 0.131129 1.000000 0.215880 0.145307 1.000000 0.028810 0.104828 1.019160 -0.953095 -0.066065 1.483650 0.614877 3.585356 -2.353130 2.522014 -0.168884 -0.704118 0.747791 -3.064582 1.036486 -0.969298 -0.067188 2.359300 0.977777 5.701432 -3.236447 3.680385 -0.443938 -0.837347 1.286576 -5.056973 0.254853 -0.543498 2.181214 1.382862 -1.814993 -3.741353 2.840207 0.913847 1.560139 -3.095061 2.358491 -2.296709 3.741353 10.959633
607.000000 1.000000 86.000000 0.960000 9826.826000 60.000000 9.000000 -0.024825 0.054367 -0.998212 0.172823 0.984041 0.048054 0.984610 -0.170269 -0.032385 0.002530 -0.254865 0.252336 -0.527527 0.687612 -0.620821 0.000000 0.000000 0.000000 1.000000 0.257461 0.050451 0.290350 1.000000 0.418039 0.283035 1.000000 0.202113 1.000000 0.257461 0.050451 1.000000 0.206143 0.112817 1.000000 0.023066 0.061733 0.002950 -0.255317 0.252368 -0.527803 0.687432 -0.620880 0.031689 0.685764 -0.717454 0.249791 -0.116580 -0.795034 0.003000 -0.259658 0.256658 -0.839313 1.093154 -0.987323 -0.085602 1.176687 -1.091085 0.329856 -0.212449 -1.223012 0.896156 0.003599 0.210860 -0.681697 0.163980 0.849276 -0.642166 0.043130 -1.060136 -0.253990 -0.167579 0.638567 1.060136 2.970299
